New structure                           
   1.00000000000000     
     2.7481709024921273   -1.5866572100780001    4.4364341797821005
    -0.0000000000000000    3.1733144201560002    4.4364341797821005
    -2.7481709024921273   -1.5866572100780001    4.4364341797821005
   Bi   Fe   O 
     2     2     6
Selective dynamics
Direct
  0.2500000000000000  0.2500000000000000  0.2500000000000000   F   F   F
  0.7500000000000000  0.7500000000000000  0.7500000000000000   F   F   F
  0.4825134617151800  0.4825134617151800  0.4825134617151800   T   T   T
  0.9825134617151799  0.9825134617151799  0.9825134617151799   T   T   T
  0.6499524120086099  0.7955920052847939  0.1959344090468828   T   T   T
  0.2955920052848010  0.1499524120086241  0.6959344240468520   T   T   T
  0.1959344090468544  0.6499524120086241  0.7955920052848010   T   T   T
  0.6959344240468804  0.2955920052847939  0.1499524120086098   T   T   T
  0.7955920052848223  0.1959344090468686  0.6499524120085957   T   T   T
  0.1499524120085956  0.6959344240468662  0.2955920052848223   T   T   T
 
  0.00000000E+00  0.00000000E+00  0.00000000E+00
  0.00000000E+00  0.00000000E+00  0.00000000E+00
  0.00000000E+00  0.00000000E+00  0.00000000E+00
  0.00000000E+00  0.00000000E+00  0.00000000E+00
  0.00000000E+00  0.00000000E+00  0.00000000E+00
  0.00000000E+00  0.00000000E+00  0.00000000E+00
  0.00000000E+00  0.00000000E+00  0.00000000E+00
  0.00000000E+00  0.00000000E+00  0.00000000E+00
  0.00000000E+00  0.00000000E+00  0.00000000E+00
  0.00000000E+00  0.00000000E+00  0.00000000E+00
