New structure                           
   1.00000000000000     
     2.7327856649265612   -1.5777745381439450    4.3598557177894257
    -0.0000000000000000    3.1555490762878899    4.3598557177894257
    -2.7327856649265612   -1.5777745381439450    4.3598557177894257
   Bi   Fe   O 
     2     2     6
Selective dynamics
Direct
  0.2500000000000000  0.2500000000000000  0.2500000000000000   F   F   F
  0.7500000000000000  0.7500000000000000  0.7500000000000000   F   F   F
  0.4860494073281952  0.4860494073281952  0.4860494073281952   T   T   T
  0.9860494073281952  0.9860494073281952  0.9860494073281952   T   T   T
  0.6539082339948944  0.7996597625305003  0.1990447253149029   T   T   T
  0.2996597625304931  0.1539082339950649  0.6990447403147371   T   T   T
  0.1990447253147394  0.6539082339950649  0.7996597625304932   T   T   T
  0.6990447403149005  0.2996597625305003  0.1539082339948944   T   T   T
  0.7996597625306637  0.1990447253147323  0.6539082339948944   T   T   T
  0.1539082339948944  0.6990447403147300  0.2996597625306637   T   T   T
 
  0.00000000E+00  0.00000000E+00  0.00000000E+00
  0.00000000E+00  0.00000000E+00  0.00000000E+00
  0.00000000E+00  0.00000000E+00  0.00000000E+00
  0.00000000E+00  0.00000000E+00  0.00000000E+00
  0.00000000E+00  0.00000000E+00  0.00000000E+00
  0.00000000E+00  0.00000000E+00  0.00000000E+00
  0.00000000E+00  0.00000000E+00  0.00000000E+00
  0.00000000E+00  0.00000000E+00  0.00000000E+00
  0.00000000E+00  0.00000000E+00  0.00000000E+00
  0.00000000E+00  0.00000000E+00  0.00000000E+00
