New structure                           
   1.00000000000000     
     2.7569080297435207   -1.5917015930244589    4.4789593801538246
     0.0000000000000000    3.1834031860489178    4.4789593801538246
    -2.7569080297435207   -1.5917015930244589    4.4789593801538246
   Bi   Fe   O 
     2     2     6
Selective dynamics
Direct
  0.2500000000000000  0.2500000000000000  0.2500000000000000   F   F   F
  0.7500000000000000  0.7500000000000000  0.7500000000000000   F   F   F
  0.4806225202427875  0.4806225202427875  0.4806225202427875   T   T   T
  0.9806225202427875  0.9806225202427875  0.9806225202427875   T   T   T
  0.6478251306129597  0.7932738578551969  0.1942012387211560   T   T   T
  0.2932738578551969  0.1478251306129596  0.6942012537211537   T   T   T
  0.1942012387211560  0.6478251306129597  0.7932738578551969   T   T   T
  0.6942012537211537  0.2932738578551969  0.1478251306129596   T   T   T
  0.7932738578551969  0.1942012387211560  0.6478251306129597   T   T   T
  0.1478251306129596  0.6942012537211537  0.2932738578551969   T   T   T
 
  0.00000000E+00  0.00000000E+00  0.00000000E+00
  0.00000000E+00  0.00000000E+00  0.00000000E+00
  0.00000000E+00  0.00000000E+00  0.00000000E+00
  0.00000000E+00  0.00000000E+00  0.00000000E+00
  0.00000000E+00  0.00000000E+00  0.00000000E+00
  0.00000000E+00  0.00000000E+00  0.00000000E+00
  0.00000000E+00  0.00000000E+00  0.00000000E+00
  0.00000000E+00  0.00000000E+00  0.00000000E+00
  0.00000000E+00  0.00000000E+00  0.00000000E+00
  0.00000000E+00  0.00000000E+00  0.00000000E+00
