New structure                           
   1.00000000000000     
     2.7254302130972712   -1.5735278365725800    4.3246913446501214
    -0.0000000000000000    3.1470556731451600    4.3246913446501214
    -2.7254302130972712   -1.5735278365725800    4.3246913446501214
   Bi   Fe   O 
     2     2     6
Selective dynamics
Direct
  0.2500000000000000  0.2500000000000000  0.2500000000000000   F   F   F
  0.7500000000000000  0.7500000000000000  0.7500000000000000   F   F   F
  0.4877148570606842  0.4877148570606842  0.4877148570606842   T   T   T
  0.9877148570606843  0.9877148570606843  0.9877148570606843   T   T   T
  0.6557446023394589  0.8015045136973489  0.2004480512004131   T   T   T
  0.3015045136968950  0.1557446023414011  0.7004480661989091   T   T   T
  0.2004480511989111  0.6557446023414010  0.8015045136968949   T   T   T
  0.7004480662004110  0.3015045136973492  0.1557446023394590   T   T   T
  0.8015045136988443  0.2004480511984710  0.6557446023398991   T   T   T
  0.1557446023398990  0.7004480661984688  0.3015045136988440   T   T   T
 
  0.00000000E+00  0.00000000E+00  0.00000000E+00
  0.00000000E+00  0.00000000E+00  0.00000000E+00
  0.00000000E+00  0.00000000E+00  0.00000000E+00
  0.00000000E+00  0.00000000E+00  0.00000000E+00
  0.00000000E+00  0.00000000E+00  0.00000000E+00
  0.00000000E+00  0.00000000E+00  0.00000000E+00
  0.00000000E+00  0.00000000E+00  0.00000000E+00
  0.00000000E+00  0.00000000E+00  0.00000000E+00
  0.00000000E+00  0.00000000E+00  0.00000000E+00
  0.00000000E+00  0.00000000E+00  0.00000000E+00
