New structure                           
   1.00000000000000     
     2.6691134509677776   -1.5410133659121614    4.1216118240153019
     0.0000000000000000    3.0820267318243229    4.1216118240153019
    -2.6691134509677776   -1.5410133659121614    4.1216118240153019
   Bi   Fe   O 
     2     2     6
Selective dynamics
Direct
  0.2500000000000000  0.2500000000000000  0.2500000000000000   F   F   F
  0.7500000000000000  0.7500000000000000  0.7500000000000000   F   F   F
  0.4957099878406510  0.4957099878406510  0.4957099878406510   T   T   T
  0.9957099878406509  0.9957099878406509  0.9957099878406509   T   T   T
  0.6747840072734206  0.8095052725205620  0.2148075945766251   T   T   T
  0.3095052725208481  0.1747840072735547  0.7148076095762023   T   T   T
  0.2148075945762047  0.6747840072735549  0.8095052725208480   T   T   T
  0.7148076095766227  0.3095052725205618  0.1747840072734206   T   T   T
  0.8095052725209823  0.2148075945764909  0.6747840072731344   T   T   T
  0.1747840072731343  0.7148076095764886  0.3095052725209823   T   T   T
 
  0.00000000E+00  0.00000000E+00  0.00000000E+00
  0.00000000E+00  0.00000000E+00  0.00000000E+00
  0.00000000E+00  0.00000000E+00  0.00000000E+00
  0.00000000E+00  0.00000000E+00  0.00000000E+00
  0.00000000E+00  0.00000000E+00  0.00000000E+00
  0.00000000E+00  0.00000000E+00  0.00000000E+00
  0.00000000E+00  0.00000000E+00  0.00000000E+00
  0.00000000E+00  0.00000000E+00  0.00000000E+00
  0.00000000E+00  0.00000000E+00  0.00000000E+00
  0.00000000E+00  0.00000000E+00  0.00000000E+00
