New structure                           
   1.00000000000000     
     2.6763717094907000   -1.5452039234346884    4.1434649416020237
    -0.0000000000000000    3.0904078468693768    4.1434649416020237
    -2.6763717094907000   -1.5452039234346884    4.1434649416020237
   Bi   Fe   O 
     2     2     6
Selective dynamics
Direct
  0.2500000000000000  0.2500000000000000  0.2500000000000000   F   F   F
  0.7500000000000000  0.7500000000000000  0.7500000000000000   F   F   F
  0.4948576148406897  0.4948576148406897  0.4948576148406897   T   T   T
  0.9948576148406898  0.9948576148406898  0.9948576148406898   T   T   T
  0.6735251030264521  0.8084115942401584  0.2132529731047830   T   T   T
  0.3084115942400961  0.1735251030268943  0.7132529881044077   T   T   T
  0.2132529731044101  0.6735251030268943  0.8084115942400960   T   T   T
  0.7132529881047808  0.3084115942401581  0.1735251030264522   T   T   T
  0.8084115942405382  0.2132529731043410  0.6735251030265214   T   T   T
  0.1735251030265214  0.7132529881043385  0.3084115942405383   T   T   T
 
  0.00000000E+00  0.00000000E+00  0.00000000E+00
  0.00000000E+00  0.00000000E+00  0.00000000E+00
  0.00000000E+00  0.00000000E+00  0.00000000E+00
  0.00000000E+00  0.00000000E+00  0.00000000E+00
  0.00000000E+00  0.00000000E+00  0.00000000E+00
  0.00000000E+00  0.00000000E+00  0.00000000E+00
  0.00000000E+00  0.00000000E+00  0.00000000E+00
  0.00000000E+00  0.00000000E+00  0.00000000E+00
  0.00000000E+00  0.00000000E+00  0.00000000E+00
  0.00000000E+00  0.00000000E+00  0.00000000E+00
