New structure                           
   1.00000000000000     
     2.7401229493849515   -1.5820107218786006    4.3956409267408736
     0.0000000000000000    3.1640214437572012    4.3956409267408736
    -2.7401229493849515   -1.5820107218786006    4.3956409267408736
   Bi   Fe   O 
     2     2     6
Selective dynamics
Direct
  0.2500000000000000  0.2500000000000000  0.2500000000000000   F   F   F
  0.7500000000000000  0.7500000000000000  0.7500000000000000   F   F   F
  0.4843962890281293  0.4843962890281293  0.4843962890281293   T   T   T
  0.9843962890281291  0.9843962890281291  0.9843962890281291   T   T   T
  0.6520313004974303  0.7978485827386906  0.1976365225245209   T   T   T
  0.2978485827387008  0.1520313004975039  0.6976365375244280   T   T   T
  0.1976365225244298  0.6520313004975038  0.7978485827387010   T   T   T
  0.6976365375245183  0.2978485827386906  0.1520313004974301   T   T   T
  0.7978485827387746  0.1976365225244472  0.6520313004974128   T   T   T
  0.1520313004974128  0.6976365375244450  0.2978485827387746   T   T   T
 
  0.00000000E+00  0.00000000E+00  0.00000000E+00
  0.00000000E+00  0.00000000E+00  0.00000000E+00
  0.00000000E+00  0.00000000E+00  0.00000000E+00
  0.00000000E+00  0.00000000E+00  0.00000000E+00
  0.00000000E+00  0.00000000E+00  0.00000000E+00
  0.00000000E+00  0.00000000E+00  0.00000000E+00
  0.00000000E+00  0.00000000E+00  0.00000000E+00
  0.00000000E+00  0.00000000E+00  0.00000000E+00
  0.00000000E+00  0.00000000E+00  0.00000000E+00
  0.00000000E+00  0.00000000E+00  0.00000000E+00
