Li Os O                                 
   1.00000000000000     
     5.0935152261773879   -0.0000000004728901    0.0000000000000000
    -2.5467576126791589    4.4111135806689035   -0.0000000000000000
     0.0000000000000000   -0.0000000000000000   13.1466031972054171
   Na   Li   Os   O 
     1     5     6    18
Direct
 -0.0000000000000000 -0.0000000000000000  0.2227114986978988
  0.6666666666666643  0.3333333333333357  0.0501468651249182
  0.6666666666666643  0.3333333333333357  0.5523985939561031
  0.3333333333333357  0.6666666666666643  0.3851428942792466
  0.3333333333333357  0.6666666666666643  0.8837459316722331
 -0.0000000000000000 -0.0000000000000000  0.7207834182632241
  0.6666666666666643  0.3333333333333357  0.3351938830579597
  0.3333333333333357  0.6666666666666643  0.1627343376964350
  0.3333333333333357  0.6666666666666643  0.6664274784289658
 -0.0000000000000000 -0.0000000000000000  0.5027767671592941
 -0.0000000000000000 -0.0000000000000000 -0.0048680690786044
  0.6666666666666643  0.3333333333333357  0.8313595424299776
  0.5909193144687784  0.9955385755761220  0.2522224863368366
  0.0044614244238775  0.5953807388926560  0.2522224863368366
  0.4046192611073439  0.4090806855312215  0.2522224863368366
  0.0355831506462577  0.3317474747834665  0.0815299626086775
  0.2961643241372016  0.9644168493537422  0.0815299626086775
  0.6682525252165337  0.7038356758627979  0.0815299626086775
  0.2969967850496376  0.3312187788326683  0.5857521179066830
  0.6687812211673319  0.9657780062169766  0.5857521179066830
  0.0342219937830236  0.7030032149503627  0.5857521179066830
  0.7011300539482507  0.6640588692960732  0.4201366879441701
  0.9629288153478295  0.2988699460517495  0.4201366879441701
  0.3359411307039267  0.0370711846521701  0.4201366879441701
  0.9631641734159319  0.6634193818812044  0.9160746298494671
  0.3365806181187955  0.2997447915347203  0.9160746298494671
  0.7002552084652796  0.0368358265840683  0.9160746298494671
  0.3649695877468133  0.9968021566640229  0.7510873005863103
  0.6318325689172101  0.6350304122531868  0.7510873005863103
  0.0031978433359768  0.3681674310827899  0.7510873005863103
 
  0.00000000E+00  0.00000000E+00  0.00000000E+00
  0.00000000E+00  0.00000000E+00  0.00000000E+00
  0.00000000E+00  0.00000000E+00  0.00000000E+00
  0.00000000E+00  0.00000000E+00  0.00000000E+00
  0.00000000E+00  0.00000000E+00  0.00000000E+00
  0.00000000E+00  0.00000000E+00  0.00000000E+00
  0.00000000E+00  0.00000000E+00  0.00000000E+00
  0.00000000E+00  0.00000000E+00  0.00000000E+00
  0.00000000E+00  0.00000000E+00  0.00000000E+00
  0.00000000E+00  0.00000000E+00  0.00000000E+00
  0.00000000E+00  0.00000000E+00  0.00000000E+00
  0.00000000E+00  0.00000000E+00  0.00000000E+00
  0.00000000E+00  0.00000000E+00  0.00000000E+00
  0.00000000E+00  0.00000000E+00  0.00000000E+00
  0.00000000E+00  0.00000000E+00  0.00000000E+00
  0.00000000E+00  0.00000000E+00  0.00000000E+00
  0.00000000E+00  0.00000000E+00  0.00000000E+00
  0.00000000E+00  0.00000000E+00  0.00000000E+00
  0.00000000E+00  0.00000000E+00  0.00000000E+00
  0.00000000E+00  0.00000000E+00  0.00000000E+00
  0.00000000E+00  0.00000000E+00  0.00000000E+00
  0.00000000E+00  0.00000000E+00  0.00000000E+00
  0.00000000E+00  0.00000000E+00  0.00000000E+00
  0.00000000E+00  0.00000000E+00  0.00000000E+00
  0.00000000E+00  0.00000000E+00  0.00000000E+00
  0.00000000E+00  0.00000000E+00  0.00000000E+00
  0.00000000E+00  0.00000000E+00  0.00000000E+00
  0.00000000E+00  0.00000000E+00  0.00000000E+00
  0.00000000E+00  0.00000000E+00  0.00000000E+00
  0.00000000E+00  0.00000000E+00  0.00000000E+00
