Li Os O                                 
   1.00000000000000     
     5.0546493335012581    0.0000000249683624   -0.0000000000000000
    -2.5273246883738643    4.3774547175499920   -0.0000000000000000
     0.0000000000000000   -0.0000000000000000   13.0720049307206363
   Na   Li   Os   O 
     1     5     6    18
Direct
  0.0000000000000000 -0.0000000000000000  0.2202292709330676
  0.6666666666666643  0.3333333333333357  0.0473446447912519
  0.6666666666666643  0.3333333333333357  0.5503027552625251
  0.3333333333333357  0.6666666666666643  0.3820426360202357
  0.3333333333333357  0.6666666666666643  0.8810507438985486
  0.0000000000000000 -0.0000000000000000  0.7176539952013503
  0.0000000000000000 -0.0000000000000000 -0.0049884319572694
  0.3333333333333357  0.6666666666666643  0.1624790590405854
  0.6666666666666643  0.3333333333333357  0.3356027934739080
  0.0000000000000000 -0.0000000000000000  0.5027946744934439
  0.3333333333333357  0.6666666666666643  0.6665246936050067
  0.6666666666666643  0.3333333333333357  0.8313100601427548
  0.5938743351674033  0.9949319618831456  0.2526620653297553
  0.0050680381168547  0.5989423732842580  0.2526620653297553
  0.4010576267157419  0.4061256648325967  0.2526620653297553
  0.0318583119409742  0.3315710380803576  0.0815274077633208
  0.2997127261393761  0.9681416880590258  0.0815274077633208
  0.6684289619196425  0.7002872738606238  0.0815274077633208
  0.3006707208126404  0.3309987736609971  0.5860383049780763
  0.6690012263390028  0.9696719471516502  0.5860383049780763
  0.0303280528483497  0.6993292791873599  0.5860383049780763
  0.6972489411852237  0.6639546028382168  0.4205757909951824
  0.9667056616529996  0.3027510588147762  0.4205757909951824
  0.3360453971617836  0.0332943383470002  0.4205757909951824
  0.9666149837604646  0.6627056563671365  0.9163107694871798
  0.3372943436328638  0.3039093273933214  0.9163107694871798
  0.6960906726066785  0.0333850162395353  0.9163107694871798
  0.3612597393743265  0.9964830110555363  0.7513934359059210
  0.6352232716812094  0.6387402606256732  0.7513934359059210
  0.0035169889444638  0.3647767283187903  0.7513934359059210
 
  0.00000000E+00  0.00000000E+00  0.00000000E+00
  0.00000000E+00  0.00000000E+00  0.00000000E+00
  0.00000000E+00  0.00000000E+00  0.00000000E+00
  0.00000000E+00  0.00000000E+00  0.00000000E+00
  0.00000000E+00  0.00000000E+00  0.00000000E+00
  0.00000000E+00  0.00000000E+00  0.00000000E+00
  0.00000000E+00  0.00000000E+00  0.00000000E+00
  0.00000000E+00  0.00000000E+00  0.00000000E+00
  0.00000000E+00  0.00000000E+00  0.00000000E+00
  0.00000000E+00  0.00000000E+00  0.00000000E+00
  0.00000000E+00  0.00000000E+00  0.00000000E+00
  0.00000000E+00  0.00000000E+00  0.00000000E+00
  0.00000000E+00  0.00000000E+00  0.00000000E+00
  0.00000000E+00  0.00000000E+00  0.00000000E+00
  0.00000000E+00  0.00000000E+00  0.00000000E+00
  0.00000000E+00  0.00000000E+00  0.00000000E+00
  0.00000000E+00  0.00000000E+00  0.00000000E+00
  0.00000000E+00  0.00000000E+00  0.00000000E+00
  0.00000000E+00  0.00000000E+00  0.00000000E+00
  0.00000000E+00  0.00000000E+00  0.00000000E+00
  0.00000000E+00  0.00000000E+00  0.00000000E+00
  0.00000000E+00  0.00000000E+00  0.00000000E+00
  0.00000000E+00  0.00000000E+00  0.00000000E+00
  0.00000000E+00  0.00000000E+00  0.00000000E+00
  0.00000000E+00  0.00000000E+00  0.00000000E+00
  0.00000000E+00  0.00000000E+00  0.00000000E+00
  0.00000000E+00  0.00000000E+00  0.00000000E+00
  0.00000000E+00  0.00000000E+00  0.00000000E+00
  0.00000000E+00  0.00000000E+00  0.00000000E+00
  0.00000000E+00  0.00000000E+00  0.00000000E+00
