Li Os O                                 
   1.00000000000000     
     5.0012156152739999    0.0000000170483056   -0.0000000000000000
    -2.5006078224012671    4.3311797641065546    0.0000000000000000
    -0.0000000000000000   -0.0000000000000000   12.9691287262035857
   Na   Li   Os   O 
     1     5     6    18
Direct
  0.6666666666666643  0.3333333333333357  0.5498680188829566
  0.3333333333333357  0.6666666666666643  0.3769430443909568
  0.3333333333333357  0.6666666666666643  0.8806765616120285
 -0.0000000000000000 -0.0000000000000000  0.7115860382315367
 -0.0000000000000000 -0.0000000000000000  0.2107875373223211
  0.6666666666666643  0.3333333333333357  0.0470891581410999
  0.6666666666666643  0.3333333333333357  0.3280466235420672
 -0.0000000000000000 -0.0000000000000000  0.4954248458671053
  0.3333333333333357  0.6666666666666643  0.6694714075423674
  0.6666666666666643  0.3333333333333357  0.8361914925162565
 -0.0000000000000000 -0.0000000000000000 -0.0000423706373475
  0.3333333333333357  0.6666666666666643  0.1644807239484649
  0.2644141068948817  0.3274232404973077  0.5865855393793339
  0.6725767595026922  0.9369908663975743  0.5865855393793339
  0.0630091336024260  0.7355858931051180  0.5865855393793339
  0.6934881450476241  0.6647180803763514  0.4147458999886581
  0.9712299353287203  0.3065118549523758  0.4147458999886581
  0.3352819196236485  0.0287700646712797  0.4147458999886581
  0.9722623594446856  0.6637605042646441  0.9199138745523734
  0.3362394957353559  0.3085018551800488  0.9199138745523734
  0.6914981448199508  0.0277376405553141  0.9199138745523734
  0.3583929968946832  0.9969416935385976  0.7545752244739030
  0.6385486966439217  0.6416070031053170  0.7545752244739030
  0.0030583064614024  0.3614513033560786  0.7545752244739030
  0.6381627560781061  0.9953776920187263  0.2498370582217045
  0.0046223079812740  0.6427850640593727  0.2498370582217045
  0.3572149359406269  0.3618372439218938  0.2498370582217045
  0.0226341925724433  0.3292737139242291  0.0850848045468710
  0.3066395213517856  0.9773658074275566  0.0850848045468710
  0.6707262860757712  0.6933604786482144  0.0850848045468710
 
  0.00000000E+00  0.00000000E+00  0.00000000E+00
  0.00000000E+00  0.00000000E+00  0.00000000E+00
  0.00000000E+00  0.00000000E+00  0.00000000E+00
  0.00000000E+00  0.00000000E+00  0.00000000E+00
  0.00000000E+00  0.00000000E+00  0.00000000E+00
  0.00000000E+00  0.00000000E+00  0.00000000E+00
  0.00000000E+00  0.00000000E+00  0.00000000E+00
  0.00000000E+00  0.00000000E+00  0.00000000E+00
  0.00000000E+00  0.00000000E+00  0.00000000E+00
  0.00000000E+00  0.00000000E+00  0.00000000E+00
  0.00000000E+00  0.00000000E+00  0.00000000E+00
  0.00000000E+00  0.00000000E+00  0.00000000E+00
  0.00000000E+00  0.00000000E+00  0.00000000E+00
  0.00000000E+00  0.00000000E+00  0.00000000E+00
  0.00000000E+00  0.00000000E+00  0.00000000E+00
  0.00000000E+00  0.00000000E+00  0.00000000E+00
  0.00000000E+00  0.00000000E+00  0.00000000E+00
  0.00000000E+00  0.00000000E+00  0.00000000E+00
  0.00000000E+00  0.00000000E+00  0.00000000E+00
  0.00000000E+00  0.00000000E+00  0.00000000E+00
  0.00000000E+00  0.00000000E+00  0.00000000E+00
  0.00000000E+00  0.00000000E+00  0.00000000E+00
  0.00000000E+00  0.00000000E+00  0.00000000E+00
  0.00000000E+00  0.00000000E+00  0.00000000E+00
  0.00000000E+00  0.00000000E+00  0.00000000E+00
  0.00000000E+00  0.00000000E+00  0.00000000E+00
  0.00000000E+00  0.00000000E+00  0.00000000E+00
  0.00000000E+00  0.00000000E+00  0.00000000E+00
  0.00000000E+00  0.00000000E+00  0.00000000E+00
  0.00000000E+00  0.00000000E+00  0.00000000E+00
