Li Os O                                 
   1.00000000000000     
     5.0365236334324974    0.0000000230865177    0.0000000000000000
    -2.5182618367097578    4.3617574017699825   -0.0000000000000000
     0.0000000000000000   -0.0000000000000000   13.0356611411151899
   Na   Li   Os   O 
     1     5     6    18
Direct
  0.0000000000000000  0.0000000000000000  0.2189303832499192
  0.6666666666666643  0.3333333333333357  0.0460656994425580
  0.6666666666666643  0.3333333333333357  0.5492816999699469
  0.3333333333333357  0.6666666666666643  0.3807052871981234
  0.3333333333333357  0.6666666666666643  0.8798129410664253
  0.0000000000000000  0.0000000000000000  0.7162801523354457
  0.0000000000000000  0.0000000000000000 -0.0051140365021531
  0.3333333333333357  0.6666666666666643  0.1623406045645335
  0.6666666666666643  0.3333333333333357  0.3357675321626735
  0.0000000000000000  0.0000000000000000  0.5028185536056259
  0.3333333333333357  0.6666666666666643  0.6665562565383604
  0.6666666666666643  0.3333333333333357  0.8312306440527674
  0.5952291503784521  0.9946648210030241  0.2528294745560634
  0.0053351789969759  0.6005643293754213  0.2528294745560634
  0.3994356706245790  0.4047708496215479  0.2528294745560634
  0.0301502645358264  0.3314892861225107  0.0814691841934108
  0.3013390215866844  0.9698497354641735  0.0814691841934108
  0.6685107138774891  0.6986609784133159  0.0814691841934108
  0.3023811885817303  0.3307878585991983  0.5862102687205930
  0.6692121414008017  0.9715933299825320  0.5862102687205930
  0.0284066700174681  0.6976188114182700  0.5862102687205930
  0.6953398972218061  0.6638322584437497  0.4208070893906891
  0.9684923612219368  0.3046601027781941  0.4208070893906891
  0.3361677415562500  0.0315076387780631  0.4208070893906891
  0.9683177800593551  0.6624772448729200  0.9163513644778466
  0.3375227551270797  0.3058405351864419  0.9163513644778466
  0.6941594648135583  0.0316822199406450  0.9163513644778466
  0.3594418432675043  0.9963157046300959  0.7515083460950622
  0.6368738613625984  0.6405581567324958  0.7515083460950622
  0.0036842953699042  0.3631261386374014  0.7515083460950622
 
  0.00000000E+00  0.00000000E+00  0.00000000E+00
  0.00000000E+00  0.00000000E+00  0.00000000E+00
  0.00000000E+00  0.00000000E+00  0.00000000E+00
  0.00000000E+00  0.00000000E+00  0.00000000E+00
  0.00000000E+00  0.00000000E+00  0.00000000E+00
  0.00000000E+00  0.00000000E+00  0.00000000E+00
  0.00000000E+00  0.00000000E+00  0.00000000E+00
  0.00000000E+00  0.00000000E+00  0.00000000E+00
  0.00000000E+00  0.00000000E+00  0.00000000E+00
  0.00000000E+00  0.00000000E+00  0.00000000E+00
  0.00000000E+00  0.00000000E+00  0.00000000E+00
  0.00000000E+00  0.00000000E+00  0.00000000E+00
  0.00000000E+00  0.00000000E+00  0.00000000E+00
  0.00000000E+00  0.00000000E+00  0.00000000E+00
  0.00000000E+00  0.00000000E+00  0.00000000E+00
  0.00000000E+00  0.00000000E+00  0.00000000E+00
  0.00000000E+00  0.00000000E+00  0.00000000E+00
  0.00000000E+00  0.00000000E+00  0.00000000E+00
  0.00000000E+00  0.00000000E+00  0.00000000E+00
  0.00000000E+00  0.00000000E+00  0.00000000E+00
  0.00000000E+00  0.00000000E+00  0.00000000E+00
  0.00000000E+00  0.00000000E+00  0.00000000E+00
  0.00000000E+00  0.00000000E+00  0.00000000E+00
  0.00000000E+00  0.00000000E+00  0.00000000E+00
  0.00000000E+00  0.00000000E+00  0.00000000E+00
  0.00000000E+00  0.00000000E+00  0.00000000E+00
  0.00000000E+00  0.00000000E+00  0.00000000E+00
  0.00000000E+00  0.00000000E+00  0.00000000E+00
  0.00000000E+00  0.00000000E+00  0.00000000E+00
  0.00000000E+00  0.00000000E+00  0.00000000E+00
