Li Os O                                 
   1.00000000000000     
     5.0738107202797957   -0.0000000021497241   -0.0000000000000000
    -2.5369053582781826    4.3940489788309858   -0.0000000000000000
     0.0000000000000000   -0.0000000000000000   13.1052308552818761
   Na   Li   Os   O 
     1     5     6    18
Direct
  0.0000000000000000  0.0000000000000000  0.2213307247723634
  0.6666666666666643  0.3333333333333357  0.0489004717994623
  0.6666666666666643  0.3333333333333357  0.5514005618799213
  0.3333333333333357  0.6666666666666643  0.3836595298151022
  0.3333333333333357  0.6666666666666643  0.8824943178202486
  0.0000000000000000  0.0000000000000000  0.7192907589100436
  0.0000000000000000  0.0000000000000000 -0.0049857916597093
  0.3333333333333357  0.6666666666666643  0.1625740023836559
  0.6666666666666643  0.3333333333333357  0.3354005681940438
  0.0000000000000000  0.0000000000000000  0.5028018794261070
  0.3333333333333357  0.6666666666666643  0.6664652569591254
  0.6666666666666643  0.3333333333333357  0.8313093826336653
  0.5924130430071236  0.9952872691052022  0.2524053405927885
  0.0047127308947978  0.5971257739019145  0.2524053405927885
  0.4028742260980859  0.4075869569928766  0.2524053405927885
  0.0337896263998373  0.3316700744648541  0.0814877871423579
  0.2978804480650166  0.9662103736001626  0.0814877871423579
  0.6683299255351464  0.7021195519349833  0.0814877871423579
  0.2988783849330795  0.3310305762776535  0.5859169962260961
  0.6689694237223466  0.9678478086554260  0.5859169962260961
  0.0321521913445741  0.7011216150669205  0.5859169962260961
  0.6991159496244047  0.6639772855232821  0.4203874339246332
  0.9648613358988696  0.3008840503755951  0.4203874339246332
  0.3360227144767184  0.0351386641011303  0.4203874339246332
  0.9649376039798055  0.6631239242664617  0.9161284645931290
  0.3368760757335382  0.3018136797133508  0.9161284645931290
  0.6981863202866487  0.0350623960201943  0.9161284645931290
  0.3630713481265498  0.9966727013699721  0.7512199396913530
  0.6336013532434294  0.6369286518734504  0.7512199396913530
  0.0033272986300279  0.3663986467565705  0.7512199396913530
 
  0.00000000E+00  0.00000000E+00  0.00000000E+00
  0.00000000E+00  0.00000000E+00  0.00000000E+00
  0.00000000E+00  0.00000000E+00  0.00000000E+00
  0.00000000E+00  0.00000000E+00  0.00000000E+00
  0.00000000E+00  0.00000000E+00  0.00000000E+00
  0.00000000E+00  0.00000000E+00  0.00000000E+00
  0.00000000E+00  0.00000000E+00  0.00000000E+00
  0.00000000E+00  0.00000000E+00  0.00000000E+00
  0.00000000E+00  0.00000000E+00  0.00000000E+00
  0.00000000E+00  0.00000000E+00  0.00000000E+00
  0.00000000E+00  0.00000000E+00  0.00000000E+00
  0.00000000E+00  0.00000000E+00  0.00000000E+00
  0.00000000E+00  0.00000000E+00  0.00000000E+00
  0.00000000E+00  0.00000000E+00  0.00000000E+00
  0.00000000E+00  0.00000000E+00  0.00000000E+00
  0.00000000E+00  0.00000000E+00  0.00000000E+00
  0.00000000E+00  0.00000000E+00  0.00000000E+00
  0.00000000E+00  0.00000000E+00  0.00000000E+00
  0.00000000E+00  0.00000000E+00  0.00000000E+00
  0.00000000E+00  0.00000000E+00  0.00000000E+00
  0.00000000E+00  0.00000000E+00  0.00000000E+00
  0.00000000E+00  0.00000000E+00  0.00000000E+00
  0.00000000E+00  0.00000000E+00  0.00000000E+00
  0.00000000E+00  0.00000000E+00  0.00000000E+00
  0.00000000E+00  0.00000000E+00  0.00000000E+00
  0.00000000E+00  0.00000000E+00  0.00000000E+00
  0.00000000E+00  0.00000000E+00  0.00000000E+00
  0.00000000E+00  0.00000000E+00  0.00000000E+00
  0.00000000E+00  0.00000000E+00  0.00000000E+00
  0.00000000E+00  0.00000000E+00  0.00000000E+00
