New structure                           
   1.00000000000000     
     2.7748306779261829   -1.6020492387757386    4.5452548327632556
    -0.0000000000000000    3.2040984775514771    4.5452548327632556
    -2.7748306779261829   -1.6020492387757386    4.5452548327632556
   Bi   Fe   O 
     2     2     6
Selective dynamics
Direct
  0.2500000000000000  0.2500000000000000  0.2500000000000000   F   F   F
  0.7500000000000000  0.7500000000000000  0.7500000000000000   F   F   F
  0.4776272186762360  0.4776272186762360  0.4776272186762360   T   T   T
  0.9776272186762359  0.9776272186762359  0.9776272186762359   T   T   T
  0.6425366854192599  0.7911420787576340  0.1905108488154578   T   T   T
  0.2911420787576337  0.1425366854192599  0.6905108638154556   T   T   T
  0.1905108488154578  0.6425366854192599  0.7911420787576340   T   T   T
  0.6905108638154556  0.2911420787576337  0.1425366854192599   T   T   T
  0.7911420787576340  0.1905108488154578  0.6425366854192599   T   T   T
  0.1425366854192599  0.6905108638154556  0.2911420787576337   T   T   T
 
  0.00000000E+00  0.00000000E+00  0.00000000E+00
  0.00000000E+00  0.00000000E+00  0.00000000E+00
  0.00000000E+00  0.00000000E+00  0.00000000E+00
  0.00000000E+00  0.00000000E+00  0.00000000E+00
  0.00000000E+00  0.00000000E+00  0.00000000E+00
  0.00000000E+00  0.00000000E+00  0.00000000E+00
  0.00000000E+00  0.00000000E+00  0.00000000E+00
  0.00000000E+00  0.00000000E+00  0.00000000E+00
  0.00000000E+00  0.00000000E+00  0.00000000E+00
  0.00000000E+00  0.00000000E+00  0.00000000E+00
