Ba12 Ti12 O36                           
   1.00000000000000     
     7.8835718785169702    0.0000000000000000    0.0000000000000000
     0.0000000000000000    7.8835718785169702    0.0000000000000000
     0.0000000000000000   -0.0000000000000000   11.8256828496315833
   La   Ba   Ti   O 
     1    11    12    36
Selective dynamics
Direct
  0.0000000000000000 -0.0000000000000000  0.0013470540896931   T   T   T
  0.0000000000000000 -0.0000000000000000  0.3354135953843220   T   T   T
  0.0000000000000000 -0.0000000000000000  0.6672677181317623   T   T   T
  0.0000000000000000  0.5000000000000000  0.0013450259883553   T   T   T
  0.0000000000000000  0.5000000000000000  0.3344658612876679   T   T   T
  0.0000000000000000  0.5000000000000000  0.6682240730228496   T   T   T
  0.5000000000000000 -0.0000000000000000  0.0013450259883553   T   T   T
  0.5000000000000000 -0.0000000000000000  0.3344658612876679   T   T   T
  0.5000000000000000 -0.0000000000000000  0.6682240730228496   T   T   T
  0.5000000000000000  0.5000000000000000  0.0013419912287448   T   T   T
  0.5000000000000000  0.5000000000000000  0.3343875065382303   T   T   T
  0.5000000000000000  0.5000000000000000  0.6683198716095210   T   T   T
  0.2496357462407252  0.2496357462407252  0.1678763212787392   T   T   T
  0.2500494427637359  0.2500494427637359  0.5013577409491817   T   T   T
  0.2496278933393873  0.2496278933393873  0.8348310013817472   T   T   T
  0.2496357462407252  0.7503642537592745  0.1678763212787392   T   T   T
  0.2500494427637359  0.7499505572362641  0.5013577409491817   T   T   T
  0.2496278933393873  0.7503721066606129  0.8348310013817472   T   T   T
  0.7503642537592745  0.2496357462407252  0.1678763212787392   T   T   T
  0.7499505572362641  0.2500494427637359  0.5013577409491817   T   T   T
  0.7503721066606129  0.2496278933393873  0.8348310013817472   T   T   T
  0.7503642537592745  0.7503642537592745  0.1678763212787392   T   T   T
  0.7499505572362641  0.7499505572362641  0.5013577409491817   T   T   T
  0.7503721066606129  0.7503721066606129  0.8348310013817472   T   T   T
  0.0000000000000000  0.2429410690683695  0.1633020873243309   T   T   T
  0.0000000000000000  0.2508330487621916  0.5013286258511105   T   T   T
  0.0000000000000000  0.2429350300596203  0.8394049274505351   T   T   T
  0.0000000000000000  0.7570589309316305  0.1633020873243309   T   T   T
  0.0000000000000000  0.7491669512378081  0.5013286258511105   T   T   T
  0.0000000000000000  0.7570649699403798  0.8394049274505351   T   T   T
  0.5000000000000000  0.2484535957784967  0.1661484423075386   T   T   T
  0.5000000000000000  0.2501618575138343  0.5013693637049565   T   T   T
  0.5000000000000000  0.2484535531607300  0.8365232009269389   T   T   T
  0.5000000000000000  0.7515464042215033  0.1661484423075386   T   T   T
  0.5000000000000000  0.7498381424861655  0.5013693637049565   T   T   T
  0.5000000000000000  0.7515464468392701  0.8365232009269389   T   T   T
  0.2429410690683695 -0.0000000000000000  0.1633020873243309   T   T   T
  0.2508330487621916 -0.0000000000000000  0.5013286258511105   T   T   T
  0.2429350300596203 -0.0000000000000000  0.8394049274505351   T   T   T
  0.2484535957784967  0.5000000000000000  0.1661484423075386   T   T   T
  0.2501618575138343  0.5000000000000000  0.5013693637049565   T   T   T
  0.2484535531607300  0.5000000000000000  0.8365232009269389   T   T   T
  0.7570589309316305 -0.0000000000000000  0.1633020873243309   T   T   T
  0.7491669512378081 -0.0000000000000000  0.5013286258511105   T   T   T
  0.7570649699403798 -0.0000000000000000  0.8394049274505351   T   T   T
  0.7515464042215033  0.5000000000000000  0.1661484423075386   T   T   T
  0.7498381424861655  0.5000000000000000  0.5013693637049565   T   T   T
  0.7515464468392701  0.5000000000000000  0.8365232009269389   T   T   T
  0.2430134972579650  0.2430134972579650  0.0013435257224119   T   T   T
  0.2493732011040080  0.2493732011040080  0.3335320643279868   T   T   T
  0.2493255180149014  0.2493255180149014  0.6691657843795196   T   T   T
  0.2430134972579650  0.7569865027420349  0.0013435257224119   T   T   T
  0.2493732011040080  0.7506267988959922  0.3335320643279868   T   T   T
  0.2493255180149014  0.7506744819850985  0.6691657843795196   T   T   T
  0.7569865027420349  0.2430134972579650  0.0013435257224119   T   T   T
  0.7506267988959922  0.2493732011040080  0.3335320643279868   T   T   T
  0.7506744819850985  0.2493255180149014  0.6691657843795196   T   T   T
  0.7569865027420349  0.7569865027420349  0.0013435257224119   T   T   T
  0.7506267988959922  0.7506267988959922  0.3335320643279868   T   T   T
  0.7506744819850985  0.7506744819850985  0.6691657843795196   T   T   T
 
  0.00000000E+00  0.00000000E+00  0.00000000E+00
  0.00000000E+00  0.00000000E+00  0.00000000E+00
  0.00000000E+00  0.00000000E+00  0.00000000E+00
  0.00000000E+00  0.00000000E+00  0.00000000E+00
  0.00000000E+00  0.00000000E+00  0.00000000E+00
  0.00000000E+00  0.00000000E+00  0.00000000E+00
  0.00000000E+00  0.00000000E+00  0.00000000E+00
  0.00000000E+00  0.00000000E+00  0.00000000E+00
  0.00000000E+00  0.00000000E+00  0.00000000E+00
  0.00000000E+00  0.00000000E+00  0.00000000E+00
  0.00000000E+00  0.00000000E+00  0.00000000E+00
  0.00000000E+00  0.00000000E+00  0.00000000E+00
  0.00000000E+00  0.00000000E+00  0.00000000E+00
  0.00000000E+00  0.00000000E+00  0.00000000E+00
  0.00000000E+00  0.00000000E+00  0.00000000E+00
  0.00000000E+00  0.00000000E+00  0.00000000E+00
  0.00000000E+00  0.00000000E+00  0.00000000E+00
  0.00000000E+00  0.00000000E+00  0.00000000E+00
  0.00000000E+00  0.00000000E+00  0.00000000E+00
  0.00000000E+00  0.00000000E+00  0.00000000E+00
  0.00000000E+00  0.00000000E+00  0.00000000E+00
  0.00000000E+00  0.00000000E+00  0.00000000E+00
  0.00000000E+00  0.00000000E+00  0.00000000E+00
  0.00000000E+00  0.00000000E+00  0.00000000E+00
  0.00000000E+00  0.00000000E+00  0.00000000E+00
  0.00000000E+00  0.00000000E+00  0.00000000E+00
  0.00000000E+00  0.00000000E+00  0.00000000E+00
  0.00000000E+00  0.00000000E+00  0.00000000E+00
  0.00000000E+00  0.00000000E+00  0.00000000E+00
  0.00000000E+00  0.00000000E+00  0.00000000E+00
  0.00000000E+00  0.00000000E+00  0.00000000E+00
  0.00000000E+00  0.00000000E+00  0.00000000E+00
  0.00000000E+00  0.00000000E+00  0.00000000E+00
  0.00000000E+00  0.00000000E+00  0.00000000E+00
  0.00000000E+00  0.00000000E+00  0.00000000E+00
  0.00000000E+00  0.00000000E+00  0.00000000E+00
  0.00000000E+00  0.00000000E+00  0.00000000E+00
  0.00000000E+00  0.00000000E+00  0.00000000E+00
  0.00000000E+00  0.00000000E+00  0.00000000E+00
  0.00000000E+00  0.00000000E+00  0.00000000E+00
  0.00000000E+00  0.00000000E+00  0.00000000E+00
  0.00000000E+00  0.00000000E+00  0.00000000E+00
  0.00000000E+00  0.00000000E+00  0.00000000E+00
  0.00000000E+00  0.00000000E+00  0.00000000E+00
  0.00000000E+00  0.00000000E+00  0.00000000E+00
  0.00000000E+00  0.00000000E+00  0.00000000E+00
  0.00000000E+00  0.00000000E+00  0.00000000E+00
  0.00000000E+00  0.00000000E+00  0.00000000E+00
  0.00000000E+00  0.00000000E+00  0.00000000E+00
  0.00000000E+00  0.00000000E+00  0.00000000E+00
  0.00000000E+00  0.00000000E+00  0.00000000E+00
  0.00000000E+00  0.00000000E+00  0.00000000E+00
  0.00000000E+00  0.00000000E+00  0.00000000E+00
  0.00000000E+00  0.00000000E+00  0.00000000E+00
  0.00000000E+00  0.00000000E+00  0.00000000E+00
  0.00000000E+00  0.00000000E+00  0.00000000E+00
  0.00000000E+00  0.00000000E+00  0.00000000E+00
  0.00000000E+00  0.00000000E+00  0.00000000E+00
  0.00000000E+00  0.00000000E+00  0.00000000E+00
  0.00000000E+00  0.00000000E+00  0.00000000E+00
