Ba12 Ti12 O36                           
   1.00000000000000     
     7.8590451967266652    0.0000000000000000    0.0000000000000000
     0.0000000000000000    7.8590451967266652   -0.0000000000000000
     0.0000000000000000    0.0000000000000000   11.7882471552280013
   La   Ba   Ti   O 
     1    11    12    36
Selective dynamics
Direct
 -0.0000000000000000  0.0000000000000000  0.0008652663385048   T   T   T
 -0.0000000000000000  0.0000000000000000  0.3349573224229375   T   T   T
 -0.0000000000000000  0.0000000000000000  0.6668016816892788   T   T   T
 -0.0000000000000000  0.5000000000000000  0.0008877101247302   T   T   T
 -0.0000000000000000  0.5000000000000000  0.3339731386168869   T   T   T
 -0.0000000000000000  0.5000000000000000  0.6677932337553998   T   T   T
  0.5000000000000000  0.0000000000000000  0.0008877101247302   T   T   T
  0.5000000000000000  0.0000000000000000  0.3339731386168869   T   T   T
  0.5000000000000000  0.0000000000000000  0.6677932337553998   T   T   T
  0.5000000000000000  0.5000000000000000  0.0008848492654792   T   T   T
  0.5000000000000000  0.5000000000000000  0.3339294076288128   T   T   T
  0.5000000000000000  0.5000000000000000  0.6678397884785624   T   T   T
  0.2496757138926265  0.2496757138926265  0.1674229120438467   T   T   T
  0.2500523333152266  0.2500523333152266  0.5008829001013138   T   T   T
  0.2496754656727471  0.2496754656727471  0.8343416617090285   T   T   T
  0.2496757138926265  0.7503242861073735  0.1674229120438467   T   T   T
  0.2500523333152266  0.7499476666847735  0.5008829001013138   T   T   T
  0.2496754656727471  0.7503245343272529  0.8343416617090285   T   T   T
  0.7503242861073735  0.2496757138926265  0.1674229120438467   T   T   T
  0.7499476666847735  0.2500523333152266  0.5008829001013138   T   T   T
  0.7503245343272529  0.2496754656727471  0.8343416617090285   T   T   T
  0.7503242861073735  0.7503242861073735  0.1674229120438467   T   T   T
  0.7499476666847735  0.7499476666847735  0.5008829001013138   T   T   T
  0.7503245343272529  0.7503245343272529  0.8343416617090285   T   T   T
 -0.0000000000000000  0.2429813647422384  0.1628570292612688   T   T   T
 -0.0000000000000000  0.2508380837146271  0.5008820505664162   T   T   T
 -0.0000000000000000  0.2429688933780813  0.8389515545365297   T   T   T
 -0.0000000000000000  0.7570186352577616  0.1628570292612688   T   T   T
 -0.0000000000000000  0.7491619162853728  0.5008820505664162   T   T   T
 -0.0000000000000000  0.7570311066219186  0.8389515545365297   T   T   T
  0.5000000000000000  0.2484900110009357  0.1657212631919990   T   T   T
  0.5000000000000000  0.2501741590164721  0.5009041734656086   T   T   T
  0.5000000000000000  0.2484841247268446  0.8360475897673624   T   T   T
  0.5000000000000000  0.7515099889990574  0.1657212631919990   T   T   T
  0.5000000000000000  0.7498258409835280  0.5009041734656086   T   T   T
  0.5000000000000000  0.7515158752731554  0.8360475897673624   T   T   T
  0.2429813647422384  0.0000000000000000  0.1628570292612688   T   T   T
  0.2508380837146271  0.0000000000000000  0.5008820505664162   T   T   T
  0.2429688933780813  0.0000000000000000  0.8389515545365297   T   T   T
  0.2484900110009357  0.5000000000000000  0.1657212631919990   T   T   T
  0.2501741590164721  0.5000000000000000  0.5009041734656086   T   T   T
  0.2484841247268446  0.5000000000000000  0.8360475897673624   T   T   T
  0.7570186352577616  0.0000000000000000  0.1628570292612688   T   T   T
  0.7491619162853728  0.0000000000000000  0.5008820505664162   T   T   T
  0.7570311066219186  0.0000000000000000  0.8389515545365297   T   T   T
  0.7515099889990574  0.5000000000000000  0.1657212631919990   T   T   T
  0.7498258409835280  0.5000000000000000  0.5009041734656086   T   T   T
  0.7515158752731554  0.5000000000000000  0.8360475897673624   T   T   T
  0.2430864941930972  0.2430864941930972  0.0008872664640405   T   T   T
  0.2493691720599963  0.2493691720599963  0.3331095918041621   T   T   T
  0.2493388809031941  0.2493388809031941  0.6686743868840276   T   T   T
  0.2430864941930972  0.7569135058069028  0.0008872664640405   T   T   T
  0.2493691720599963  0.7506308279400035  0.3331095918041621   T   T   T
  0.2493388809031941  0.7506611190968059  0.6686743868840276   T   T   T
  0.7569135058069028  0.2430864941930972  0.0008872664640405   T   T   T
  0.7506308279400035  0.2493691720599963  0.3331095918041621   T   T   T
  0.7506611190968059  0.2493388809031941  0.6686743868840276   T   T   T
  0.7569135058069028  0.7569135058069028  0.0008872664640405   T   T   T
  0.7506308279400035  0.7506308279400035  0.3331095918041621   T   T   T
  0.7506611190968059  0.7506611190968059  0.6686743868840276   T   T   T
 
  0.00000000E+00  0.00000000E+00  0.00000000E+00
  0.00000000E+00  0.00000000E+00  0.00000000E+00
  0.00000000E+00  0.00000000E+00  0.00000000E+00
  0.00000000E+00  0.00000000E+00  0.00000000E+00
  0.00000000E+00  0.00000000E+00  0.00000000E+00
  0.00000000E+00  0.00000000E+00  0.00000000E+00
  0.00000000E+00  0.00000000E+00  0.00000000E+00
  0.00000000E+00  0.00000000E+00  0.00000000E+00
  0.00000000E+00  0.00000000E+00  0.00000000E+00
  0.00000000E+00  0.00000000E+00  0.00000000E+00
  0.00000000E+00  0.00000000E+00  0.00000000E+00
  0.00000000E+00  0.00000000E+00  0.00000000E+00
  0.00000000E+00  0.00000000E+00  0.00000000E+00
  0.00000000E+00  0.00000000E+00  0.00000000E+00
  0.00000000E+00  0.00000000E+00  0.00000000E+00
  0.00000000E+00  0.00000000E+00  0.00000000E+00
  0.00000000E+00  0.00000000E+00  0.00000000E+00
  0.00000000E+00  0.00000000E+00  0.00000000E+00
  0.00000000E+00  0.00000000E+00  0.00000000E+00
  0.00000000E+00  0.00000000E+00  0.00000000E+00
  0.00000000E+00  0.00000000E+00  0.00000000E+00
  0.00000000E+00  0.00000000E+00  0.00000000E+00
  0.00000000E+00  0.00000000E+00  0.00000000E+00
  0.00000000E+00  0.00000000E+00  0.00000000E+00
  0.00000000E+00  0.00000000E+00  0.00000000E+00
  0.00000000E+00  0.00000000E+00  0.00000000E+00
  0.00000000E+00  0.00000000E+00  0.00000000E+00
  0.00000000E+00  0.00000000E+00  0.00000000E+00
  0.00000000E+00  0.00000000E+00  0.00000000E+00
  0.00000000E+00  0.00000000E+00  0.00000000E+00
  0.00000000E+00  0.00000000E+00  0.00000000E+00
  0.00000000E+00  0.00000000E+00  0.00000000E+00
  0.00000000E+00  0.00000000E+00  0.00000000E+00
  0.00000000E+00  0.00000000E+00  0.00000000E+00
  0.00000000E+00  0.00000000E+00  0.00000000E+00
  0.00000000E+00  0.00000000E+00  0.00000000E+00
  0.00000000E+00  0.00000000E+00  0.00000000E+00
  0.00000000E+00  0.00000000E+00  0.00000000E+00
  0.00000000E+00  0.00000000E+00  0.00000000E+00
  0.00000000E+00  0.00000000E+00  0.00000000E+00
  0.00000000E+00  0.00000000E+00  0.00000000E+00
  0.00000000E+00  0.00000000E+00  0.00000000E+00
  0.00000000E+00  0.00000000E+00  0.00000000E+00
  0.00000000E+00  0.00000000E+00  0.00000000E+00
  0.00000000E+00  0.00000000E+00  0.00000000E+00
  0.00000000E+00  0.00000000E+00  0.00000000E+00
  0.00000000E+00  0.00000000E+00  0.00000000E+00
  0.00000000E+00  0.00000000E+00  0.00000000E+00
  0.00000000E+00  0.00000000E+00  0.00000000E+00
  0.00000000E+00  0.00000000E+00  0.00000000E+00
  0.00000000E+00  0.00000000E+00  0.00000000E+00
  0.00000000E+00  0.00000000E+00  0.00000000E+00
  0.00000000E+00  0.00000000E+00  0.00000000E+00
  0.00000000E+00  0.00000000E+00  0.00000000E+00
  0.00000000E+00  0.00000000E+00  0.00000000E+00
  0.00000000E+00  0.00000000E+00  0.00000000E+00
  0.00000000E+00  0.00000000E+00  0.00000000E+00
  0.00000000E+00  0.00000000E+00  0.00000000E+00
  0.00000000E+00  0.00000000E+00  0.00000000E+00
  0.00000000E+00  0.00000000E+00  0.00000000E+00
