Ba12 Ti12 O36                           
   1.00000000000000     
     7.9094795153193234    0.0000000000000000    0.0000000000000000
     0.0000000000000000    7.9094795153193234   -0.0000000000000000
     0.0000000000000000   -0.0000000000000000   11.8646469817748077
   La   Ba   Ti   O 
     1    11    12    36
Selective dynamics
Direct
  0.0000000000000000 -0.0000000000000000  0.0018731447129170   T   T   T
  0.0000000000000000 -0.0000000000000000  0.3359759336726781   T   T   T
  0.0000000000000000 -0.0000000000000000  0.6678392020546658   T   T   T
  0.0000000000000000  0.5000000000000000  0.0019151087535617   T   T   T
  0.0000000000000000  0.5000000000000000  0.3350630290699454   T   T   T
  0.0000000000000000  0.5000000000000000  0.6687526241377723   T   T   T
  0.5000000000000000 -0.0000000000000000  0.0019151087535617   T   T   T
  0.5000000000000000 -0.0000000000000000  0.3350630290699454   T   T   T
  0.5000000000000000 -0.0000000000000000  0.6687526241377723   T   T   T
  0.5000000000000000  0.5000000000000000  0.0019107476527568   T   T   T
  0.5000000000000000  0.5000000000000000  0.3349125399837944   T   T   T
  0.5000000000000000  0.5000000000000000  0.6689186735990271   T   T   T
  0.2495840171832732  0.2495840171832732  0.1683935427354219   T   T   T
  0.2500424727138270  0.2500424727138270  0.5018927106698211   T   T   T
  0.2495853155655464  0.2495853155655464  0.8354045263714875   T   T   T
  0.2495840171832732  0.7504159828167268  0.1683935427354219   T   T   T
  0.2500424727138270  0.7499575272861730  0.5018927106698211   T   T   T
  0.2495853155655464  0.7504146844344537  0.8354045263714875   T   T   T
  0.7504159828167268  0.2495840171832732  0.1683935427354219   T   T   T
  0.7499575272861730  0.2500424727138270  0.5018927106698211   T   T   T
  0.7504146844344537  0.2495853155655464  0.8354045263714875   T   T   T
  0.7504159828167268  0.7504159828167268  0.1683935427354219   T   T   T
  0.7499575272861730  0.7499575272861730  0.5018927106698211   T   T   T
  0.7504146844344537  0.7504146844344537  0.8354045263714875   T   T   T
  0.0000000000000000  0.2429081612598547  0.1638850548723276   T   T   T
  0.0000000000000000  0.2507982535745543  0.5019210158458358   T   T   T
  0.0000000000000000  0.2428788032078021  0.8400170415797881   T   T   T
  0.0000000000000000  0.7570918387401455  0.1638850548723276   T   T   T
  0.0000000000000000  0.7492017464254460  0.5019210158458358   T   T   T
  0.0000000000000000  0.7571211967921981  0.8400170415797881   T   T   T
  0.5000000000000000  0.2484359380971300  0.1667014545252088   T   T   T
  0.5000000000000000  0.2501603522120496  0.5019494331772764   T   T   T
  0.5000000000000000  0.2484199092395657  0.8371423137429452   T   T   T
  0.5000000000000000  0.7515640619028701  0.1667014545252088   T   T   T
  0.5000000000000000  0.7498396477879503  0.5019494331772764   T   T   T
  0.5000000000000000  0.7515800907604344  0.8371423137429452   T   T   T
  0.2429081612598547 -0.0000000000000000  0.1638850548723276   T   T   T
  0.2507982535745543 -0.0000000000000000  0.5019210158458358   T   T   T
  0.2428788032078021 -0.0000000000000000  0.8400170415797881   T   T   T
  0.2484359380971300  0.5000000000000000  0.1667014545252088   T   T   T
  0.2501603522120496  0.5000000000000000  0.5019494331772764   T   T   T
  0.2484199092395657  0.5000000000000000  0.8371423137429452   T   T   T
  0.7570918387401455 -0.0000000000000000  0.1638850548723276   T   T   T
  0.7492017464254460 -0.0000000000000000  0.5019210158458358   T   T   T
  0.7571211967921981 -0.0000000000000000  0.8400170415797881   T   T   T
  0.7515640619028701  0.5000000000000000  0.1667014545252088   T   T   T
  0.7498396477879503  0.5000000000000000  0.5019494331772764   T   T   T
  0.7515800907604344  0.5000000000000000  0.8371423137429452   T   T   T
  0.2429055504455400  0.2429055504455400  0.0019429239750971   T   T   T
  0.2493561624225503  0.2493561624225503  0.3340859862865153   T   T   T
  0.2493135054039326  0.2493135054039326  0.6697980548186673   T   T   T
  0.2429055504455400  0.7570944495544600  0.0019429239750971   T   T   T
  0.2493561624225503  0.7506438375774496  0.3340859862865153   T   T   T
  0.2493135054039326  0.7506864945960676  0.6697980548186673   T   T   T
  0.7570944495544600  0.2429055504455400  0.0019429239750971   T   T   T
  0.7506438375774496  0.2493561624225503  0.3340859862865153   T   T   T
  0.7506864945960676  0.2493135054039326  0.6697980548186673   T   T   T
  0.7570944495544600  0.7570944495544600  0.0019429239750971   T   T   T
  0.7506438375774496  0.7506438375774496  0.3340859862865153   T   T   T
  0.7506864945960676  0.7506864945960676  0.6697980548186673   T   T   T
 
  0.00000000E+00  0.00000000E+00  0.00000000E+00
  0.00000000E+00  0.00000000E+00  0.00000000E+00
  0.00000000E+00  0.00000000E+00  0.00000000E+00
  0.00000000E+00  0.00000000E+00  0.00000000E+00
  0.00000000E+00  0.00000000E+00  0.00000000E+00
  0.00000000E+00  0.00000000E+00  0.00000000E+00
  0.00000000E+00  0.00000000E+00  0.00000000E+00
  0.00000000E+00  0.00000000E+00  0.00000000E+00
  0.00000000E+00  0.00000000E+00  0.00000000E+00
  0.00000000E+00  0.00000000E+00  0.00000000E+00
  0.00000000E+00  0.00000000E+00  0.00000000E+00
  0.00000000E+00  0.00000000E+00  0.00000000E+00
  0.00000000E+00  0.00000000E+00  0.00000000E+00
  0.00000000E+00  0.00000000E+00  0.00000000E+00
  0.00000000E+00  0.00000000E+00  0.00000000E+00
  0.00000000E+00  0.00000000E+00  0.00000000E+00
  0.00000000E+00  0.00000000E+00  0.00000000E+00
  0.00000000E+00  0.00000000E+00  0.00000000E+00
  0.00000000E+00  0.00000000E+00  0.00000000E+00
  0.00000000E+00  0.00000000E+00  0.00000000E+00
  0.00000000E+00  0.00000000E+00  0.00000000E+00
  0.00000000E+00  0.00000000E+00  0.00000000E+00
  0.00000000E+00  0.00000000E+00  0.00000000E+00
  0.00000000E+00  0.00000000E+00  0.00000000E+00
  0.00000000E+00  0.00000000E+00  0.00000000E+00
  0.00000000E+00  0.00000000E+00  0.00000000E+00
  0.00000000E+00  0.00000000E+00  0.00000000E+00
  0.00000000E+00  0.00000000E+00  0.00000000E+00
  0.00000000E+00  0.00000000E+00  0.00000000E+00
  0.00000000E+00  0.00000000E+00  0.00000000E+00
  0.00000000E+00  0.00000000E+00  0.00000000E+00
  0.00000000E+00  0.00000000E+00  0.00000000E+00
  0.00000000E+00  0.00000000E+00  0.00000000E+00
  0.00000000E+00  0.00000000E+00  0.00000000E+00
  0.00000000E+00  0.00000000E+00  0.00000000E+00
  0.00000000E+00  0.00000000E+00  0.00000000E+00
  0.00000000E+00  0.00000000E+00  0.00000000E+00
  0.00000000E+00  0.00000000E+00  0.00000000E+00
  0.00000000E+00  0.00000000E+00  0.00000000E+00
  0.00000000E+00  0.00000000E+00  0.00000000E+00
  0.00000000E+00  0.00000000E+00  0.00000000E+00
  0.00000000E+00  0.00000000E+00  0.00000000E+00
  0.00000000E+00  0.00000000E+00  0.00000000E+00
  0.00000000E+00  0.00000000E+00  0.00000000E+00
  0.00000000E+00  0.00000000E+00  0.00000000E+00
  0.00000000E+00  0.00000000E+00  0.00000000E+00
  0.00000000E+00  0.00000000E+00  0.00000000E+00
  0.00000000E+00  0.00000000E+00  0.00000000E+00
  0.00000000E+00  0.00000000E+00  0.00000000E+00
  0.00000000E+00  0.00000000E+00  0.00000000E+00
  0.00000000E+00  0.00000000E+00  0.00000000E+00
  0.00000000E+00  0.00000000E+00  0.00000000E+00
  0.00000000E+00  0.00000000E+00  0.00000000E+00
  0.00000000E+00  0.00000000E+00  0.00000000E+00
  0.00000000E+00  0.00000000E+00  0.00000000E+00
  0.00000000E+00  0.00000000E+00  0.00000000E+00
  0.00000000E+00  0.00000000E+00  0.00000000E+00
  0.00000000E+00  0.00000000E+00  0.00000000E+00
  0.00000000E+00  0.00000000E+00  0.00000000E+00
  0.00000000E+00  0.00000000E+00  0.00000000E+00
