sm_isp_SD1626717-standardized_unitcell  
   1.00000000000000     
     3.9557839942886437    0.0000000000000000    0.0000000000000000
     0.0000000000000000    3.9557839942886437    0.0000000000000000
     0.0000000000000000   -0.0000000000000000    3.9560265217723578
   Ba   Ti   O 
     1     1     3
Selective dynamics
Direct
  0.0000000000000000  0.0000000000000000  0.0000000000000000   F   F   F
  0.4999999699999975  0.4999999699999975  0.4996247676531633   T   T   T
 -0.0000000000000000  0.4999999699999975  0.5001897759524095   T   T   T
  0.5000000000000000 -0.0000000000000000  0.5001897759524095   T   T   T
  0.4999999699999975  0.4999999699999975  0.0003570666001110   T   T   T
 
  0.00000000E+00  0.00000000E+00  0.00000000E+00
  0.00000000E+00  0.00000000E+00  0.00000000E+00
  0.00000000E+00  0.00000000E+00  0.00000000E+00
  0.00000000E+00  0.00000000E+00  0.00000000E+00
  0.00000000E+00  0.00000000E+00  0.00000000E+00
