sm_isp_SD1626717-standardized_unitcell  
   1.00000000000000     
     3.9310229822956453    0.0000000000000000    0.0000000000000000
     0.0000000000000000    3.9310229822956448    0.0000000000000015
     0.0000000000000000    0.0000000000000015    3.9309738743911256
   Ba   Ti   O 
     1     1     3
Selective dynamics
Direct
  0.0000000000000000  0.0000000000000000  0.0000000000000000   F   F   F
  0.4999999699999975  0.4999999699999975  0.5000131044317511   T   T   T
  0.0000000000000000  0.4999999699999975  0.5000117200844131   T   T   T
  0.5000000000000000  0.0000000000000000  0.5000117200844131   T   T   T
  0.4999999699999975  0.4999999699999975 -0.0000246654499696   T   T   T
 
  0.00000000E+00  0.00000000E+00  0.00000000E+00
  0.00000000E+00  0.00000000E+00  0.00000000E+00
  0.00000000E+00  0.00000000E+00  0.00000000E+00
  0.00000000E+00  0.00000000E+00  0.00000000E+00
  0.00000000E+00  0.00000000E+00  0.00000000E+00
