sm_isp_SD1626717-standardized_unitcell  
   1.00000000000000     
     3.6717037404714370    0.0000000000000000    0.0000000000000000
     0.0000000000000000    3.6717037404714370    0.0000000000000000
     0.0000000000000000   -0.0000000000000000    3.6717596269801671
   Ba   Ti   O 
     1     1     3
Selective dynamics
Direct
  0.0000000000000000  0.0000000000000000  0.0000000000000000   F   F   F
  0.4999999699999975  0.4999999699999975  0.4999825768712412   T   T   T
  0.0000000000000000  0.4999999699999975  0.4999885737262767   T   T   T
  0.5000000000000000 -0.0000000000000000  0.4999885737262767   T   T   T
  0.4999999699999975  0.4999999699999975  0.9999901784619869   T   T   T
 
  0.00000000E+00  0.00000000E+00  0.00000000E+00
  0.00000000E+00  0.00000000E+00  0.00000000E+00
  0.00000000E+00  0.00000000E+00  0.00000000E+00
  0.00000000E+00  0.00000000E+00  0.00000000E+00
  0.00000000E+00  0.00000000E+00  0.00000000E+00
