sm_isp_SD1626717-standardized_unitcell  
   1.00000000000000     
     3.7571541727995448    0.0000000000000000    0.0000000000000000
     0.0000000000000000    3.7571541727995448   -0.0000000000000001
     0.0000000000000000   -0.0000000000000000    3.7572612565686665
   Ba   Ti   O 
     1     1     3
Selective dynamics
Direct
  0.0000000000000000  0.0000000000000000  0.0000000000000000   F   F   F
  0.4999999699999975  0.4999999699999975  0.5000373239059205   T   T   T
  0.0000000000000000  0.4999999699999975  0.4999046503147932   T   T   T
  0.5000000000000000 -0.0000000000000000  0.4999046503147932   T   T   T
  0.4999999699999975  0.4999999699999975  0.9999627237795022   T   T   T
 
  0.00000000E+00  0.00000000E+00  0.00000000E+00
  0.00000000E+00  0.00000000E+00  0.00000000E+00
  0.00000000E+00  0.00000000E+00  0.00000000E+00
  0.00000000E+00  0.00000000E+00  0.00000000E+00
  0.00000000E+00  0.00000000E+00  0.00000000E+00
