sm_isp_SD1626717-standardized_unitcell  
   1.00000000000000     
     3.6976268077473198    0.0000000000000000    0.0000000000000000
     0.0000000000000000    3.6976268077473198   -0.0000000000000000
     0.0000000000000000   -0.0000000000000000    3.6977078135498536
   Ba   Ti   O 
     1     1     3
Selective dynamics
Direct
  0.0000000000000000  0.0000000000000000  0.0000000000000000   F   F   F
  0.4999999699999975  0.4999999699999975  0.5000006295772632   T   T   T
  0.0000000000000000  0.4999999699999975  0.5000097352946958   T   T   T
  0.5000000000000000 -0.0000000000000000  0.5000097352946958   T   T   T
  0.4999999699999975  0.4999999699999975  0.0000111490223946   T   T   T
 
  0.00000000E+00  0.00000000E+00  0.00000000E+00
  0.00000000E+00  0.00000000E+00  0.00000000E+00
  0.00000000E+00  0.00000000E+00  0.00000000E+00
  0.00000000E+00  0.00000000E+00  0.00000000E+00
  0.00000000E+00  0.00000000E+00  0.00000000E+00
