sm_isp_SD1626717-standardized_unitcell  
   1.00000000000000     
     3.8769985566139051    0.0000000000000000    0.0000000000000000
     0.0000000000000000    3.8769985566139051    0.0000000000000000
     0.0000000000000000    0.0000000000000001    3.8768470933792174
   Ba   Ti   O 
     1     1     3
Selective dynamics
Direct
  0.0000000000000000  0.0000000000000000  0.0000000000000000   F   F   F
  0.4999999699999975  0.4999999699999975  0.5000000980517192   T   T   T
  0.0000000000000000  0.4999999699999975  0.4999267806392505   T   T   T
  0.5000000000000000  0.0000000000000000  0.4999267806392505   T   T   T
  0.4999999699999975  0.4999999699999975  0.9999572110105830   T   T   T
 
  0.00000000E+00  0.00000000E+00  0.00000000E+00
  0.00000000E+00  0.00000000E+00  0.00000000E+00
  0.00000000E+00  0.00000000E+00  0.00000000E+00
  0.00000000E+00  0.00000000E+00  0.00000000E+00
  0.00000000E+00  0.00000000E+00  0.00000000E+00
