sm_isp_SD1626717-standardized_unitcell  
   1.00000000000000     
     3.7919780699666199    0.0000000000000000    0.0000000000000000
     0.0000000000000000    3.7919780699666199    0.0000000000000000
     0.0000000000000000    0.0000000000000000    3.7920758780721617
   Ba   Ti   O 
     1     1     3
Selective dynamics
Direct
  0.0000000000000000  0.0000000000000000  0.0000000000000000   F   F   F
  0.4999999699999975  0.4999999699999975  0.5000324353674365   T   T   T
  0.0000000000000000  0.4999999699999975  0.4999829295407341   T   T   T
  0.5000000000000000  0.0000000000000000  0.4999829295407341   T   T   T
  0.4999999699999975  0.4999999699999975  0.0000056808847831   T   T   T
 
  0.00000000E+00  0.00000000E+00  0.00000000E+00
  0.00000000E+00  0.00000000E+00  0.00000000E+00
  0.00000000E+00  0.00000000E+00  0.00000000E+00
  0.00000000E+00  0.00000000E+00  0.00000000E+00
  0.00000000E+00  0.00000000E+00  0.00000000E+00
