sm_isp_SD1626717-standardized_unitcell  
   1.00000000000000     
     3.9856130578164071    0.0000000000000000    0.0000000000000000
     0.0000000000000000    3.9856130578164071    0.0000000000000000
     0.0000000000000000    0.0000000000000000    4.0667525496435148
   Ba   Ti   O 
     1     1     3
Selective dynamics
Direct
  0.0000000000000000  0.0000000000000000  0.0000000000000000   F   F   F
  0.4999999699999975  0.4999999699999975  0.4848447713642011   T   T   T
  0.0000000000000000  0.4999999699999975  0.5173844138514638   T   T   T
  0.5000000000000000  0.0000000000000000  0.5173844138514638   T   T   T
  0.4999999699999975  0.4999999699999975  0.0284257176445350   T   T   T
 
  0.00000000E+00  0.00000000E+00  0.00000000E+00
  0.00000000E+00  0.00000000E+00  0.00000000E+00
  0.00000000E+00  0.00000000E+00  0.00000000E+00
  0.00000000E+00  0.00000000E+00  0.00000000E+00
  0.00000000E+00  0.00000000E+00  0.00000000E+00
