sm_isp_SD1626717-standardized_unitcell  
   1.00000000000000     
     3.9774367985974046    0.0000000000000000    0.0000000000000000
     0.0000000000000000    3.9774367985974046   -0.0000000000000000
     0.0000000000000000    0.0000000000000000    4.0155378614152841
   Ba   Ti   O 
     1     1     3
Selective dynamics
Direct
  0.0000000000000000  0.0000000000000000  0.0000000000000000   F   F   F
  0.4999999699999975  0.4999999699999975  0.4881659395701012   T   T   T
  0.0000000000000000  0.4999999699999975  0.5112528708066678   T   T   T
  0.5000000000000000  0.0000000000000000  0.5112528708066678   T   T   T
  0.4999999699999975  0.4999999699999975  0.0184017950470388   T   T   T
 
  0.00000000E+00  0.00000000E+00  0.00000000E+00
  0.00000000E+00  0.00000000E+00  0.00000000E+00
  0.00000000E+00  0.00000000E+00  0.00000000E+00
  0.00000000E+00  0.00000000E+00  0.00000000E+00
  0.00000000E+00  0.00000000E+00  0.00000000E+00
