sm_isp_SD1626717-standardized_unitcell  
   1.00000000000000     
     3.9431501561064497    0.0000000000000000    0.0000000000000000
     0.0000000000000000    3.9431501561064497   -0.0000000000000000
     0.0000000000000000    0.0000000000000000    3.9431029191825400
   Ba   Ti   O 
     1     1     3
Selective dynamics
Direct
  0.0000000000000000  0.0000000000000000  0.0000000000000000   F   F   F
  0.4999999699999975  0.4999999699999975  0.4998614963793551   T   T   T
 -0.0000000000000000  0.4999999699999975  0.4999397738728785   T   T   T
  0.5000000000000000  0.0000000000000000  0.4999397738728785   T   T   T
  0.4999999699999975  0.4999999699999975 -0.0000432502211481   T   T   T
 
  0.00000000E+00  0.00000000E+00  0.00000000E+00
  0.00000000E+00  0.00000000E+00  0.00000000E+00
  0.00000000E+00  0.00000000E+00  0.00000000E+00
  0.00000000E+00  0.00000000E+00  0.00000000E+00
  0.00000000E+00  0.00000000E+00  0.00000000E+00
