sm_isp_SD1626717-standardized_unitcell  
   1.00000000000000     
     3.9193283692996443    0.0000000000000000    0.0000000000000000
     0.0000000000000000    3.9193283692996510   -0.0000000000000000
     0.0000000000000000    0.0000000000000000    3.9193750495941284
   Ba   Ti   O 
     1     1     3
Selective dynamics
Direct
  0.0000000000000000  0.0000000000000000  0.0000000000000000   F   F   F
  0.4999999699999975  0.4999999699999975  0.5001090295449099   T   T   T
  0.0000000000000000  0.4999999699999975  0.5002176070355017   T   T   T
  0.5000000000000000 -0.0000000000000000  0.5002176070355017   T   T   T
  0.4999999699999975  0.4999999699999975  0.0002124701548097   T   T   T
 
  0.00000000E+00  0.00000000E+00  0.00000000E+00
  0.00000000E+00  0.00000000E+00  0.00000000E+00
  0.00000000E+00  0.00000000E+00  0.00000000E+00
  0.00000000E+00  0.00000000E+00  0.00000000E+00
  0.00000000E+00  0.00000000E+00  0.00000000E+00
