sm_isp_SD1626717-standardized_unitcell  
   1.00000000000000     
     3.7259503515972456    0.0000000000000000    0.0000000000000000
     0.0000000000000000    3.7259503515972456   -0.0000000000000000
     0.0000000000000000    0.0000000000000000    3.7260191167524574
   Ba   Ti   O 
     1     1     3
Selective dynamics
Direct
  0.0000000000000000  0.0000000000000000  0.0000000000000000   F   F   F
  0.4999999699999975  0.4999999699999975  0.5000059159775868   T   T   T
  0.0000000000000000  0.4999999699999975  0.4999310881731113   T   T   T
  0.5000000000000000  0.0000000000000000  0.4999310881731113   T   T   T
  0.4999999699999975  0.4999999699999975  0.9999797463524487   T   T   T
 
  0.00000000E+00  0.00000000E+00  0.00000000E+00
  0.00000000E+00  0.00000000E+00  0.00000000E+00
  0.00000000E+00  0.00000000E+00  0.00000000E+00
  0.00000000E+00  0.00000000E+00  0.00000000E+00
  0.00000000E+00  0.00000000E+00  0.00000000E+00
