sm_isp_SD1626717-standardized_unitcell  
   1.00000000000000     
     3.8314046571935605    0.0000000000000000    0.0000000000000000
     0.0000000000000000    3.8314046571935605    0.0000000000000000
     0.0000000000000000    0.0000000000000000    3.8314584680924324
   Ba   Ti   O 
     1     1     3
Selective dynamics
Direct
  0.0000000000000000  0.0000000000000000  0.0000000000000000   F   F   F
  0.4999999699999975  0.4999999699999975  0.5000455302851775   T   T   T
  0.0000000000000000  0.4999999699999975  0.5000186159420538   T   T   T
  0.5000000000000000 -0.0000000000000000  0.5000186159420538   T   T   T
  0.4999999699999975  0.4999999699999975  0.0000232384671031   T   T   T
 
  0.00000000E+00  0.00000000E+00  0.00000000E+00
  0.00000000E+00  0.00000000E+00  0.00000000E+00
  0.00000000E+00  0.00000000E+00  0.00000000E+00
  0.00000000E+00  0.00000000E+00  0.00000000E+00
  0.00000000E+00  0.00000000E+00  0.00000000E+00
