Li Os O                                 
   1.00000000000000     
     5.1129549874582523   -0.0000000037373895   -0.0000000000000000
    -2.5564774904924508    4.4279489094138906    0.0000000000000000
    -0.0000000000000000    0.0000000000000000   13.1912856750377223
   Na   Li   Os   O 
     1     5     6    18
Direct
  0.0000000000000000 -0.0000000000000000  0.2238017779854934
  0.6666666666666643  0.3333333333333357  0.5533738761753695
  0.3333333333333357  0.6666666666666643  0.3868028762352683
  0.3333333333333357  0.6666666666666643  0.8850128587239923
  0.0000000000000000 -0.0000000000000000  0.7223471912126500
  0.6666666666666643  0.3333333333333357  0.0515150462113520
  0.3333333333333357  0.6666666666666643  0.6663626101521327
  0.0000000000000000 -0.0000000000000000  0.5027543974379413
  0.0000000000000000 -0.0000000000000000 -0.0048592812322177
  0.6666666666666643  0.3333333333333357  0.8313489745629191
  0.6666666666666643  0.3333333333333357  0.3349804212676383
  0.3333333333333357  0.6666666666666643  0.1628429158095745
  0.2951209120931237  0.3313676118999437  0.5855552934911744
  0.6686323881000559  0.9637533001931730  0.5855552934911744
  0.0362466998068271  0.7048790879068761  0.5855552934911744
  0.7032291038785248  0.6642382649864870  0.4198925931846103
  0.9610091611079620  0.2967708961214752  0.4198925931846103
  0.3357617350135130  0.0389908388920378  0.4198925931846103
  0.9612069976195736  0.6635887117449859  0.9159330724159102
  0.3364112882550140  0.2976182858745877  0.9159330724159102
  0.7023817141254122  0.0387930023804262  0.9159330724159102
  0.3668423265775722  0.9969670535497227  0.7509561987744329
  0.6301247269721437  0.6331576734224280  0.7509561987744329
  0.0030329464502772  0.3698752730278562  0.7509561987744329
  0.5893597138133414  0.9957408686732802  0.2520464301724725
  0.0042591313267200  0.5936188451400680  0.2520464301724725
  0.4063811548599317  0.4106402861866588  0.2520464301724725
  0.0374749311326608  0.3319478500448312  0.0814829568710692
  0.2944729189121774  0.9625250688673391  0.0814829568710692
  0.6680521499551690  0.7055270810878227  0.0814829568710692
 
  0.00000000E+00  0.00000000E+00  0.00000000E+00
  0.00000000E+00  0.00000000E+00  0.00000000E+00
  0.00000000E+00  0.00000000E+00  0.00000000E+00
  0.00000000E+00  0.00000000E+00  0.00000000E+00
  0.00000000E+00  0.00000000E+00  0.00000000E+00
  0.00000000E+00  0.00000000E+00  0.00000000E+00
  0.00000000E+00  0.00000000E+00  0.00000000E+00
  0.00000000E+00  0.00000000E+00  0.00000000E+00
  0.00000000E+00  0.00000000E+00  0.00000000E+00
  0.00000000E+00  0.00000000E+00  0.00000000E+00
  0.00000000E+00  0.00000000E+00  0.00000000E+00
  0.00000000E+00  0.00000000E+00  0.00000000E+00
  0.00000000E+00  0.00000000E+00  0.00000000E+00
  0.00000000E+00  0.00000000E+00  0.00000000E+00
  0.00000000E+00  0.00000000E+00  0.00000000E+00
  0.00000000E+00  0.00000000E+00  0.00000000E+00
  0.00000000E+00  0.00000000E+00  0.00000000E+00
  0.00000000E+00  0.00000000E+00  0.00000000E+00
  0.00000000E+00  0.00000000E+00  0.00000000E+00
  0.00000000E+00  0.00000000E+00  0.00000000E+00
  0.00000000E+00  0.00000000E+00  0.00000000E+00
  0.00000000E+00  0.00000000E+00  0.00000000E+00
  0.00000000E+00  0.00000000E+00  0.00000000E+00
  0.00000000E+00  0.00000000E+00  0.00000000E+00
  0.00000000E+00  0.00000000E+00  0.00000000E+00
  0.00000000E+00  0.00000000E+00  0.00000000E+00
  0.00000000E+00  0.00000000E+00  0.00000000E+00
  0.00000000E+00  0.00000000E+00  0.00000000E+00
  0.00000000E+00  0.00000000E+00  0.00000000E+00
  0.00000000E+00  0.00000000E+00  0.00000000E+00
