Li Os O                                 
   1.00000000000000     
     5.0186659818220685    0.0000000197383524   -0.0000000000000000
    -2.5093330080049454    4.3462922234975077    0.0000000000000000
     0.0000000000000000   -0.0000000000000000   13.0001666078342240
   Na   Li   Os   O 
     1     5     6    18
Direct
  0.0000000000000000  0.0000000000000000  0.2177795169494003
  0.6666666666666643  0.3333333333333357  0.0448493474715966
  0.6666666666666643  0.3333333333333357  0.5483402669203405
  0.3333333333333357  0.6666666666666643  0.3794734635683333
  0.3333333333333357  0.6666666666666643  0.8786438773108564
  0.0000000000000000  0.0000000000000000  0.7150403317347007
  0.6666666666666643  0.3333333333333357  0.3359519909745157
  0.3333333333333357  0.6666666666666643  0.1622021654542955
  0.3333333333333357  0.6666666666666643  0.6665887287526995
  0.0000000000000000  0.0000000000000000  0.5028223452104333
  0.0000000000000000  0.0000000000000000 -0.0051961712501171
  0.6666666666666643  0.3333333333333357  0.8311918070152410
  0.5964850281407900  0.9943716055007492  0.2530455762500993
  0.0056283944992509  0.6021134226400338  0.2530455762500993
  0.3978865773599664  0.4035149718592101  0.2530455762500993
  0.0284569002694933  0.3314614134749138  0.0814400194560311
  0.3030045132054203  0.9715430997305062  0.0814400194560311
  0.6685385865250862  0.6969954867945798  0.0814400194560311
  0.3040155255843009  0.3306114223125674  0.5863948959688268
  0.6693885776874330  0.9734041032717334  0.5863948959688268
  0.0265958967282665  0.6959844744156991  0.5863948959688268
  0.6935399561684941  0.6637285088893117  0.4210033923773714
  0.9701885527208106  0.3064600438315060  0.4210033923773714
  0.3362714911106883  0.0298114472791893  0.4210033923773714
  0.9699316383647999  0.6622702151758288  0.9164228204294019
  0.3377297848241713  0.3076614231889785  0.9164228204294019
  0.6923385768110212  0.0300683616351998  0.9164228204294019
  0.3576883439771288  0.9961315224701967  0.7516199871047474
  0.6384431784930750  0.6423116560228711  0.7516199871047474
  0.0038684775298033  0.3615568215069251  0.7516199871047474
 
  0.00000000E+00  0.00000000E+00  0.00000000E+00
  0.00000000E+00  0.00000000E+00  0.00000000E+00
  0.00000000E+00  0.00000000E+00  0.00000000E+00
  0.00000000E+00  0.00000000E+00  0.00000000E+00
  0.00000000E+00  0.00000000E+00  0.00000000E+00
  0.00000000E+00  0.00000000E+00  0.00000000E+00
  0.00000000E+00  0.00000000E+00  0.00000000E+00
  0.00000000E+00  0.00000000E+00  0.00000000E+00
  0.00000000E+00  0.00000000E+00  0.00000000E+00
  0.00000000E+00  0.00000000E+00  0.00000000E+00
  0.00000000E+00  0.00000000E+00  0.00000000E+00
  0.00000000E+00  0.00000000E+00  0.00000000E+00
  0.00000000E+00  0.00000000E+00  0.00000000E+00
  0.00000000E+00  0.00000000E+00  0.00000000E+00
  0.00000000E+00  0.00000000E+00  0.00000000E+00
  0.00000000E+00  0.00000000E+00  0.00000000E+00
  0.00000000E+00  0.00000000E+00  0.00000000E+00
  0.00000000E+00  0.00000000E+00  0.00000000E+00
  0.00000000E+00  0.00000000E+00  0.00000000E+00
  0.00000000E+00  0.00000000E+00  0.00000000E+00
  0.00000000E+00  0.00000000E+00  0.00000000E+00
  0.00000000E+00  0.00000000E+00  0.00000000E+00
  0.00000000E+00  0.00000000E+00  0.00000000E+00
  0.00000000E+00  0.00000000E+00  0.00000000E+00
  0.00000000E+00  0.00000000E+00  0.00000000E+00
  0.00000000E+00  0.00000000E+00  0.00000000E+00
  0.00000000E+00  0.00000000E+00  0.00000000E+00
  0.00000000E+00  0.00000000E+00  0.00000000E+00
  0.00000000E+00  0.00000000E+00  0.00000000E+00
  0.00000000E+00  0.00000000E+00  0.00000000E+00
