New structure                           
   1.00000000000000     
     2.5564974793143960   -1.4759929422964255    3.7552920659102127
     0.0000000000000000    2.9519858845928511    3.7552920659102127
    -2.5564974793143960   -1.4759929422964255    3.7552920659102127
   Bi   Fe   O 
     2     2     6
Selective dynamics
Direct
  0.2500000000000000  0.2500000000000000  0.2500000000000000   F   F   F
  0.7500000000000000  0.7500000000000000  0.7500000000000000   F   F   F
  0.4893869276175696  0.4893869276175696  0.4893869276175696   T   T   T
  0.9893869276175697  0.9893869276175697  0.9893869276175697   T   T   T
  0.6732272730437515  0.8120927795409656  0.2826248946465237   T   T   T
  0.3120927795812310  0.1732272729735341  0.7826249096764734   T   T   T
  0.2826248946764758  0.6732272729735339  0.8120927795812312   T   T   T
  0.7826249096465219  0.3120927795409656  0.1732272730437514   T   T   T
  0.8120927795110141  0.2826248947167410  0.6732272730034862   T   T   T
  0.1732272730034859  0.7826249097167387  0.3120927795110137   T   T   T
 
  0.00000000E+00  0.00000000E+00  0.00000000E+00
  0.00000000E+00  0.00000000E+00  0.00000000E+00
  0.00000000E+00  0.00000000E+00  0.00000000E+00
  0.00000000E+00  0.00000000E+00  0.00000000E+00
  0.00000000E+00  0.00000000E+00  0.00000000E+00
  0.00000000E+00  0.00000000E+00  0.00000000E+00
  0.00000000E+00  0.00000000E+00  0.00000000E+00
  0.00000000E+00  0.00000000E+00  0.00000000E+00
  0.00000000E+00  0.00000000E+00  0.00000000E+00
  0.00000000E+00  0.00000000E+00  0.00000000E+00
