New structure                           
   1.00000000000000     
     2.7568825617475885   -1.5916868888800022    4.4555945857380070
    -0.0000000000000000    3.1833737777600044    4.4555945857380070
    -2.7568825617475885   -1.5916868888800022    4.4555945857380070
   Bi   Fe   O 
     2     2     6
Selective dynamics
Direct
  0.2500000000000000  0.2500000000000000  0.2500000000000000   F   F   F
  0.7500000000000000  0.7500000000000000  0.7500000000000000   F   F   F
  0.4814989064890654  0.4814989064890654  0.4814989064890654   T   T   T
  0.9814989064890652  0.9814989064890652  0.9814989064890652   T   T   T
  0.6468599349073768  0.7961142815801417  0.1941108893454856   T   T   T
  0.2961142815801537  0.1468599349073974  0.6941109043454508   T   T   T
  0.1941108893454525  0.6468599349073973  0.7961142815801538   T   T   T
  0.6941109043454833  0.2961142815801417  0.1468599349073764   T   T   T
  0.7961142815801751  0.1941108893454646  0.6468599349073643   T   T   T
  0.1468599349073644  0.6941109043454623  0.2961142815801747   T   T   T
 
  0.00000000E+00  0.00000000E+00  0.00000000E+00
  0.00000000E+00  0.00000000E+00  0.00000000E+00
  0.00000000E+00  0.00000000E+00  0.00000000E+00
  0.00000000E+00  0.00000000E+00  0.00000000E+00
  0.00000000E+00  0.00000000E+00  0.00000000E+00
  0.00000000E+00  0.00000000E+00  0.00000000E+00
  0.00000000E+00  0.00000000E+00  0.00000000E+00
  0.00000000E+00  0.00000000E+00  0.00000000E+00
  0.00000000E+00  0.00000000E+00  0.00000000E+00
  0.00000000E+00  0.00000000E+00  0.00000000E+00
