New structure                           
   1.00000000000000     
     2.5970096089245471   -1.4993711082643324    3.8868476421460341
     0.0000000000000000    2.9987422165286648    3.8868476421460341
    -2.5970096089245471   -1.4993711082643324    3.8868476421460341
   Bi   Fe   O 
     2     2     6
Selective dynamics
Direct
  0.2500000000000000  0.2500000000000000  0.2500000000000000   F   F   F
  0.7500000000000000  0.7500000000000000  0.7500000000000000   F   F   F
  0.5044543263511734  0.5044543263511734  0.5044543263511734   T   T   T
  0.0044543263511733  0.0044543263511733  0.0044543263511733   T   T   T
  0.6837019829611355  0.8204664454676490  0.2217440897968428   T   T   T
  0.3204664449405353  0.1837019832901683  0.7217441049949217   T   T   T
  0.2217440899949237  0.6837019832901682  0.8204664449405356   T   T   T
  0.7217441047968405  0.3204664454676491  0.1837019829611355   T   T   T
  0.8204664452695678  0.2217440894678102  0.6837019834882492   T   T   T
  0.1837019834882491  0.7217441044678079  0.3204664452695682   T   T   T
 
  0.00000000E+00  0.00000000E+00  0.00000000E+00
  0.00000000E+00  0.00000000E+00  0.00000000E+00
  0.00000000E+00  0.00000000E+00  0.00000000E+00
  0.00000000E+00  0.00000000E+00  0.00000000E+00
  0.00000000E+00  0.00000000E+00  0.00000000E+00
  0.00000000E+00  0.00000000E+00  0.00000000E+00
  0.00000000E+00  0.00000000E+00  0.00000000E+00
  0.00000000E+00  0.00000000E+00  0.00000000E+00
  0.00000000E+00  0.00000000E+00  0.00000000E+00
  0.00000000E+00  0.00000000E+00  0.00000000E+00
