New structure                           
   1.00000000000000     
     2.7490467990567011   -1.5871629090331527    4.4162567989682131
     0.0000000000000000    3.1743258180663054    4.4162567989682131
    -2.7490467990567011   -1.5871629090331527    4.4162567989682131
   Bi   Fe   O 
     2     2     6
Selective dynamics
Direct
  0.2500000000000000  0.2500000000000000  0.2500000000000000   F   F   F
  0.7500000000000000  0.7500000000000000  0.7500000000000000   F   F   F
  0.4833009467608441  0.4833009467608441  0.4833009467608441   T   T   T
  0.9833009467608439  0.9833009467608439  0.9833009467608439   T   T   T
  0.6488764305701709  0.7981625344866703  0.1956609106925475   T   T   T
  0.2981625344866860  0.1488764305702053  0.6956609256924942   T   T   T
  0.1956609106924968  0.6488764305702052  0.7981625344866861   T   T   T
  0.6956609256925452  0.2981625344866697  0.1488764305701707   T   T   T
  0.7981625344867206  0.1956609106925130  0.6488764305701544   T   T   T
  0.1488764305701545  0.6956609256925106  0.2981625344867209   T   T   T
 
  0.00000000E+00  0.00000000E+00  0.00000000E+00
  0.00000000E+00  0.00000000E+00  0.00000000E+00
  0.00000000E+00  0.00000000E+00  0.00000000E+00
  0.00000000E+00  0.00000000E+00  0.00000000E+00
  0.00000000E+00  0.00000000E+00  0.00000000E+00
  0.00000000E+00  0.00000000E+00  0.00000000E+00
  0.00000000E+00  0.00000000E+00  0.00000000E+00
  0.00000000E+00  0.00000000E+00  0.00000000E+00
  0.00000000E+00  0.00000000E+00  0.00000000E+00
  0.00000000E+00  0.00000000E+00  0.00000000E+00
