New structure                           
   1.00000000000000     
     2.6607419508852121   -1.5361797427264892    4.0648782438584368
     0.0000000000000000    3.0723594854529783    4.0648782438584368
    -2.6607419508852121   -1.5361797427264892    4.0648782438584368
   Bi   Fe   O 
     2     2     6
Selective dynamics
Direct
  0.2500000000000000  0.2500000000000000  0.2500000000000000   F   F   F
  0.7500000000000000  0.7500000000000000  0.7500000000000000   F   F   F
  0.4982951698209722  0.4982951698209722  0.4982951698209722   T   T   T
  0.9982951698209719  0.9982951698209719  0.9982951698209719   T   T   T
  0.6769484054006498  0.8132075650641943  0.2159325344818505   T   T   T
  0.3132075650562017  0.1769484054104960  0.7159325494799874   T   T   T
  0.2159325344799897  0.6769484054104964  0.8132075650562015   T   T   T
  0.7159325494818480  0.3132075650641943  0.1769484054006499   T   T   T
  0.8132075650660477  0.2159325344719971  0.6769484054086421   T   T   T
  0.1769484054086425  0.7159325494719950  0.3132075650660478   T   T   T
 
  0.00000000E+00  0.00000000E+00  0.00000000E+00
  0.00000000E+00  0.00000000E+00  0.00000000E+00
  0.00000000E+00  0.00000000E+00  0.00000000E+00
  0.00000000E+00  0.00000000E+00  0.00000000E+00
  0.00000000E+00  0.00000000E+00  0.00000000E+00
  0.00000000E+00  0.00000000E+00  0.00000000E+00
  0.00000000E+00  0.00000000E+00  0.00000000E+00
  0.00000000E+00  0.00000000E+00  0.00000000E+00
  0.00000000E+00  0.00000000E+00  0.00000000E+00
  0.00000000E+00  0.00000000E+00  0.00000000E+00
