New structure                           
   1.00000000000000     
     2.6122041014120332   -1.5081563399079745    3.9432328982752938
     0.0000000000000000    3.0163126798159490    3.9432328982752938
    -2.6122041014120332   -1.5081563399079745    3.9432328982752938
   Bi   Fe   O 
     2     2     6
Selective dynamics
Direct
  0.2500000000000000  0.2500000000000000  0.2500000000000000   F   F   F
  0.7500000000000000  0.7500000000000000  0.7500000000000000   F   F   F
  0.5016354097311241  0.5016354097311241  0.5016354097311241   T   T   T
  0.0016354097311244  0.0016354097311244  0.0016354097311244   T   T   T
  0.6813934569330523  0.8179206534921705  0.2241215794005628   T   T   T
  0.3179206534533012  0.1813934569623165  0.7241215944101655   T   T   T
  0.2241215794101677  0.6813934569623161  0.8179206534533012   T   T   T
  0.7241215944005611  0.3179206534921702  0.1813934569330522   T   T   T
  0.8179206534825657  0.2241215793712986  0.6813934569719213   T   T   T
  0.1813934569719216  0.7241215943712960  0.3179206534825656   T   T   T
 
  0.00000000E+00  0.00000000E+00  0.00000000E+00
  0.00000000E+00  0.00000000E+00  0.00000000E+00
  0.00000000E+00  0.00000000E+00  0.00000000E+00
  0.00000000E+00  0.00000000E+00  0.00000000E+00
  0.00000000E+00  0.00000000E+00  0.00000000E+00
  0.00000000E+00  0.00000000E+00  0.00000000E+00
  0.00000000E+00  0.00000000E+00  0.00000000E+00
  0.00000000E+00  0.00000000E+00  0.00000000E+00
  0.00000000E+00  0.00000000E+00  0.00000000E+00
  0.00000000E+00  0.00000000E+00  0.00000000E+00
