New structure                           
   1.00000000000000     
     2.5697979684337184   -1.4836717318313055    3.7917653001089771
     0.0000000000000000    2.9673434636626110    3.7917653001089771
    -2.5697979684337184   -1.4836717318313055    3.7917653001089771
   Bi   Fe   O 
     2     2     6
Selective dynamics
Direct
  0.2500000000000000  0.2500000000000000  0.2500000000000000   F   F   F
  0.7500000000000000  0.7500000000000000  0.7500000000000000   F   F   F
  0.4908845501276407  0.4908845501276407  0.4908845501276407   T   T   T
 -0.0091154498723590 -0.0091154498723590 -0.0091154498723590   T   T   T
  0.6747829405466028  0.8131388672714827  0.2818305646314680   T   T   T
  0.3131388671821728  0.1747829406209679  0.7818305796464109   T   T   T
  0.2818305646464134  0.6747829406209680  0.8131388671821727   T   T   T
  0.7818305796314657  0.3131388672714830  0.1747829405466027   T   T   T
  0.8131388672565382  0.2818305645571028  0.6747829406359133   T   T   T
  0.1747829406359129  0.7818305795571007  0.3131388672565377   T   T   T
 
  0.00000000E+00  0.00000000E+00  0.00000000E+00
  0.00000000E+00  0.00000000E+00  0.00000000E+00
  0.00000000E+00  0.00000000E+00  0.00000000E+00
  0.00000000E+00  0.00000000E+00  0.00000000E+00
  0.00000000E+00  0.00000000E+00  0.00000000E+00
  0.00000000E+00  0.00000000E+00  0.00000000E+00
  0.00000000E+00  0.00000000E+00  0.00000000E+00
  0.00000000E+00  0.00000000E+00  0.00000000E+00
  0.00000000E+00  0.00000000E+00  0.00000000E+00
  0.00000000E+00  0.00000000E+00  0.00000000E+00
