New structure                           
   1.00000000000000     
     2.6794478584979431   -1.5469799406869862    4.1489137440729644
    -0.0000000000000000    3.0939598813739724    4.1489137440729644
    -2.6794478584979431   -1.5469799406869862    4.1489137440729644
   Bi   Fe   O 
     2     2     6
Selective dynamics
Direct
  0.2500000000000000  0.2500000000000000  0.2500000000000000   F   F   F
  0.7500000000000000  0.7500000000000000  0.7500000000000000   F   F   F
  0.4924754171865897  0.4924754171865897  0.4924754171865897   T   T   T
  0.9924754171865895  0.9924754171865895  0.9924754171865895   T   T   T
  0.6709524865367055  0.8092934851358639  0.2166023022997910   T   T   T
  0.3092934851358796  0.1709524865368701  0.7166023172996079   T   T   T
  0.2166023022996107  0.6709524865368701  0.8092934851358794   T   T   T
  0.7166023172997886  0.3092934851358635  0.1709524865367058   T   T   T
  0.8092934851360437  0.2166023022996267  0.6709524865366898   T   T   T
  0.1709524865366898  0.7166023172996245  0.3092934851360438   T   T   T
 
  0.00000000E+00  0.00000000E+00  0.00000000E+00
  0.00000000E+00  0.00000000E+00  0.00000000E+00
  0.00000000E+00  0.00000000E+00  0.00000000E+00
  0.00000000E+00  0.00000000E+00  0.00000000E+00
  0.00000000E+00  0.00000000E+00  0.00000000E+00
  0.00000000E+00  0.00000000E+00  0.00000000E+00
  0.00000000E+00  0.00000000E+00  0.00000000E+00
  0.00000000E+00  0.00000000E+00  0.00000000E+00
  0.00000000E+00  0.00000000E+00  0.00000000E+00
  0.00000000E+00  0.00000000E+00  0.00000000E+00
