New structure                           
   1.00000000000000     
     2.5698114443968039   -1.4836811129482976    3.8880635567087474
     0.0000000000000000    2.9673622258965953    3.8880635567087474
    -2.5698114443968039   -1.4836811129482976    3.8880635567087474
   Bi   Fe   O 
     2     2     6
Selective dynamics
Direct
  0.2500000000000000  0.2500000000000000  0.2500000000000000   F   F   F
  0.7500000000000000  0.7500000000000000  0.7500000000000000   F   F   F
  0.5000049765481972  0.5000049765481972  0.5000049765481972   T   T   T
  0.0000049765481970  0.0000049765481970  0.0000049765481970   T   T   T
  0.6831438981410711  0.8168376535098560  0.2498311137890191   T   T   T
  0.3168376535134100  0.1831438981359528  0.7498311287905810   T   T   T
  0.2498311137905831  0.6831438981359530  0.8168376535134102   T   T   T
  0.7498311287890168  0.3168376535098558  0.1831438981410712   T   T   T
  0.8168376535082915  0.2498311137941373  0.6831438981375166   T   T   T
  0.1831438981375168  0.7498311287941348  0.3168376535082918   T   T   T
 
  0.00000000E+00  0.00000000E+00  0.00000000E+00
  0.00000000E+00  0.00000000E+00  0.00000000E+00
  0.00000000E+00  0.00000000E+00  0.00000000E+00
  0.00000000E+00  0.00000000E+00  0.00000000E+00
  0.00000000E+00  0.00000000E+00  0.00000000E+00
  0.00000000E+00  0.00000000E+00  0.00000000E+00
  0.00000000E+00  0.00000000E+00  0.00000000E+00
  0.00000000E+00  0.00000000E+00  0.00000000E+00
  0.00000000E+00  0.00000000E+00  0.00000000E+00
  0.00000000E+00  0.00000000E+00  0.00000000E+00
