New structure                           
   1.00000000000000     
     2.6316228580381753   -1.5193680732272681    3.9987240458240749
    -0.0000000000000000    3.0387361464545362    3.9987240458240749
    -2.6316228580381753   -1.5193680732272681    3.9987240458240749
   Bi   Fe   O 
     2     2     6
Selective dynamics
Direct
  0.2500000000000000  0.2500000000000000  0.2500000000000000   F   F   F
  0.7500000000000000  0.7500000000000000  0.7500000000000000   F   F   F
  0.4994291660915560  0.4994291660915560  0.4994291660915560   T   T   T
 -0.0005708339084443 -0.0005708339084443 -0.0005708339084443   T   T   T
  0.6789842296331112  0.8161808478256984  0.2245182017117932   T   T   T
  0.3161808478224384  0.1789842296372110  0.7245182167109514   T   T   T
  0.2245182017109532  0.6789842296372105  0.8161808478224383   T   T   T
  0.7245182167117906  0.3161808478256983  0.1789842296331109   T   T   T
  0.8161808478265378  0.2245182017076934  0.6789842296363708   T   T   T
  0.1789842296363709  0.7245182167076915  0.3161808478265385   T   T   T
 
  0.00000000E+00  0.00000000E+00  0.00000000E+00
  0.00000000E+00  0.00000000E+00  0.00000000E+00
  0.00000000E+00  0.00000000E+00  0.00000000E+00
  0.00000000E+00  0.00000000E+00  0.00000000E+00
  0.00000000E+00  0.00000000E+00  0.00000000E+00
  0.00000000E+00  0.00000000E+00  0.00000000E+00
  0.00000000E+00  0.00000000E+00  0.00000000E+00
  0.00000000E+00  0.00000000E+00  0.00000000E+00
  0.00000000E+00  0.00000000E+00  0.00000000E+00
  0.00000000E+00  0.00000000E+00  0.00000000E+00
