New structure                           
   1.00000000000000     
     2.7424926328903982   -1.5833788515922702    4.3818797660469411
    -0.0000000000000000    3.1667577031845404    4.3818797660469411
    -2.7424926328903982   -1.5833788515922702    4.3818797660469411
   Bi   Fe   O 
     2     2     6
Selective dynamics
Direct
  0.2500000000000000  0.2500000000000000  0.2500000000000000   F   F   F
  0.7500000000000000  0.7500000000000000  0.7500000000000000   F   F   F
  0.4849124142839701  0.4849124142839701  0.4849124142839701   T   T   T
  0.9849124142839699  0.9849124142839699  0.9849124142839699   T   T   T
  0.6506480961881489  0.8000512454089010  0.1970286526545855   T   T   T
  0.3000512454086344  0.1506480961871100  0.6970286676558813   T   T   T
  0.1970286526558837  0.6506480961871097  0.8000512454086344   T   T   T
  0.6970286676545833  0.3000512454089008  0.1506480961881489   T   T   T
  0.8000512454076030  0.1970286526556243  0.6506480961884082   T   T   T
  0.1506480961884082  0.6970286676556219  0.3000512454076027   T   T   T
 
  0.00000000E+00  0.00000000E+00  0.00000000E+00
  0.00000000E+00  0.00000000E+00  0.00000000E+00
  0.00000000E+00  0.00000000E+00  0.00000000E+00
  0.00000000E+00  0.00000000E+00  0.00000000E+00
  0.00000000E+00  0.00000000E+00  0.00000000E+00
  0.00000000E+00  0.00000000E+00  0.00000000E+00
  0.00000000E+00  0.00000000E+00  0.00000000E+00
  0.00000000E+00  0.00000000E+00  0.00000000E+00
  0.00000000E+00  0.00000000E+00  0.00000000E+00
  0.00000000E+00  0.00000000E+00  0.00000000E+00
