New structure                           
   1.00000000000000     
     2.6738876243380330   -1.5437697380003872    4.1296693690702950
    -0.0000000000000000    3.0875394760007744    4.1296693690702950
    -2.6738876243380330   -1.5437697380003872    4.1296693690702950
   Bi   Fe   O 
     2     2     6
Selective dynamics
Direct
  0.2500000000000000  0.2500000000000000  0.2500000000000000   F   F   F
  0.7500000000000000  0.7500000000000000  0.7500000000000000   F   F   F
  0.4935117188374831  0.4935117188374831  0.4935117188374831   T   T   T
  0.9935117188374826  0.9935117188374826  0.9935117188374826   T   T   T
  0.6721410845182072  0.8103760939686514  0.2180279546719036   T   T   T
  0.3103760939690528  0.1721410845180444  0.7180279696716626   T   T   T
  0.2180279546716649  0.6721410845180447  0.8103760939690531   T   T   T
  0.7180279696719007  0.3103760939686512  0.1721410845182074   T   T   T
  0.8103760939688898  0.2180279546720665  0.6721410845178057   T   T   T
  0.1721410845178058  0.7180279696720643  0.3103760939688900   T   T   T
 
  0.00000000E+00  0.00000000E+00  0.00000000E+00
  0.00000000E+00  0.00000000E+00  0.00000000E+00
  0.00000000E+00  0.00000000E+00  0.00000000E+00
  0.00000000E+00  0.00000000E+00  0.00000000E+00
  0.00000000E+00  0.00000000E+00  0.00000000E+00
  0.00000000E+00  0.00000000E+00  0.00000000E+00
  0.00000000E+00  0.00000000E+00  0.00000000E+00
  0.00000000E+00  0.00000000E+00  0.00000000E+00
  0.00000000E+00  0.00000000E+00  0.00000000E+00
  0.00000000E+00  0.00000000E+00  0.00000000E+00
