New structure                           
   1.00000000000000     
     2.7653082209739628   -1.5965514455968555    4.4983347616800877
    -0.0000000000000000    3.1931028911937109    4.4983347616800877
    -2.7653082209739628   -1.5965514455968555    4.4983347616800877
   Bi   Fe   O 
     2     2     6
Selective dynamics
Direct
  0.2500000000000000  0.2500000000000000  0.2500000000000000   F   F   F
  0.7500000000000000  0.7500000000000000  0.7500000000000000   F   F   F
  0.4796095605244551  0.4796095605244551  0.4796095605244551   T   T   T
  0.9796095605244551  0.9796095605244551  0.9796095605244551   T   T   T
  0.6447796996391485  0.7937480782060639  0.1924110269180186   T   T   T
  0.2937480782060682  0.1447796996391602  0.6924110419180003   T   T   T
  0.1924110269180025  0.6447796996391604  0.7937480782060681   T   T   T
  0.6924110419180161  0.2937480782060640  0.1447796996391485   T   T   T
  0.7937480782060803  0.1924110269180068  0.6447796996391443   T   T   T
  0.1447796996391442  0.6924110419180046  0.2937480782060801   T   T   T
 
  0.00000000E+00  0.00000000E+00  0.00000000E+00
  0.00000000E+00  0.00000000E+00  0.00000000E+00
  0.00000000E+00  0.00000000E+00  0.00000000E+00
  0.00000000E+00  0.00000000E+00  0.00000000E+00
  0.00000000E+00  0.00000000E+00  0.00000000E+00
  0.00000000E+00  0.00000000E+00  0.00000000E+00
  0.00000000E+00  0.00000000E+00  0.00000000E+00
  0.00000000E+00  0.00000000E+00  0.00000000E+00
  0.00000000E+00  0.00000000E+00  0.00000000E+00
  0.00000000E+00  0.00000000E+00  0.00000000E+00
