 B
   1.0
     4.8786175399999996    0.0000000000000000    0.0000000000000000
    -2.4393087699999998    4.2250067299999996    0.0000000000000000
     0.0000000000000000    0.0000000000000000   12.5104310900000009
 B
  36
Direct
   0.8810421900000001  0.1189578100000000  0.1082863700000000
   0.2379156300000000  0.1189578100000000  0.1082863700000000
   0.8810421900000001  0.7620843700000000  0.1082863700000000
   0.7856244800000000  0.5712489599999999  0.2250469600000000
   0.7856244800000000  0.2143755200000000  0.2250469600000000
   0.4287510400000000  0.2143755200000000  0.2250469600000000
   0.4692953000000000  0.5307047000000000  0.3089958100000000
   0.0614094100000000  0.5307047000000000  0.3089958100000000
   0.4692953000000000  0.9385905900000000  0.3089958100000000
   0.1973713700000000  0.3947427400000000  0.0243375300000000
   0.1973713700000000  0.8026286300000001  0.0243375300000000
   0.6052572600000000  0.8026286300000001  0.0243375300000000
   0.5477088500000000  0.4522911500000000  0.4416197100000000
   0.9045823000000000  0.4522911500000000  0.4416197100000000
   0.5477088500000000  0.0954177000000000  0.4416197100000000
   0.4522911500000000  0.9045823000000000  0.5583802900000000
   0.4522911500000000  0.5477088500000000  0.5583802900000000
   0.0954177000000000  0.5477088500000000  0.5583802900000000
   0.1359619600000000  0.8640380400000001  0.6423291400000000
   0.7280760700000000  0.8640380400000001  0.6423291400000000
   0.1359619600000000  0.2719239300000000  0.6423291400000000
   0.8640380400000001  0.7280760700000000  0.3576708600000000
   0.8640380400000001  0.1359619600000000  0.3576708600000000
   0.2719239300000000  0.1359619600000000  0.3576708600000000
   0.2143755200000000  0.7856244800000000  0.7749530400000000
   0.5712489599999999  0.7856244800000000  0.7749530400000000
   0.2143755200000000  0.4287510400000000  0.7749530400000000
   0.1189578100000000  0.2379156300000000  0.8917136300000000
   0.1189578100000000  0.8810421900000001  0.8917136300000000
   0.7620843700000000  0.8810421900000001  0.8917136300000000
   0.8026286300000001  0.1973713700000000  0.9756624699999999
   0.3947427400000000  0.1973713700000000  0.9756624699999999
   0.8026286300000001  0.6052572600000000  0.9756624699999999
   0.5307047000000000  0.0614094100000000  0.6910041900000000
   0.5307047000000000  0.4692953000000000  0.6910041900000000
   0.9385905900000000  0.4692953000000000  0.6910041900000000