New structure                           
   1.00000000000000     
     2.7063939147891722   -1.5625362292378824    4.2650530776715572
     0.0000000000000000    3.1250724584757648    4.2650530776715572
    -2.7063939147891722   -1.5625362292378824    4.2650530776715572
   Bi   Fe   O 
     2     2     6
Selective dynamics
Direct
  0.2500000000000000  0.2500000000000000  0.2500000000000000   F   F   F
  0.7500000000000000  0.7500000000000000  0.7500000000000000   F   F   F
  0.4905859527034444  0.4905859527034444  0.4905859527034444   T   T   T
  0.9905859527034512  0.9905859527034512  0.9905859527034512   T   T   T
  0.6609920230611805  0.8031632851726737  0.2040897066580615   T   T   T
  0.3031632851872460  0.1609920231297979  0.7040897215748626   T   T   T
  0.2040897065748651  0.6609920231297981  0.8031632851872458   T   T   T
  0.7040897216580592  0.3031632851726813  0.1609920230611805   T   T   T
  0.8031632852558704  0.2040897065894370  0.6609920230466086   T   T   T
  0.1609920230466085  0.7040897215894347  0.3031632852558706   T   T   T
 
  0.00000000E+00  0.00000000E+00  0.00000000E+00
  0.00000000E+00  0.00000000E+00  0.00000000E+00
  0.00000000E+00  0.00000000E+00  0.00000000E+00
  0.00000000E+00  0.00000000E+00  0.00000000E+00
  0.00000000E+00  0.00000000E+00  0.00000000E+00
  0.00000000E+00  0.00000000E+00  0.00000000E+00
  0.00000000E+00  0.00000000E+00  0.00000000E+00
  0.00000000E+00  0.00000000E+00  0.00000000E+00
  0.00000000E+00  0.00000000E+00  0.00000000E+00
  0.00000000E+00  0.00000000E+00  0.00000000E+00
