New structure                           
   1.00000000000000     
     2.7152778268877018   -1.5676663749249380    4.3071585733892963
     0.0000000000000009    3.1353327498487924    4.3071585733886639
    -2.7152778268876956   -1.5676663749249342    4.3071585733892954
   Bi   Fe   O 
     2     2     6
Selective dynamics
Direct
  0.2500000000000000  0.2500000000000000  0.2500000000000000   F   F   F
  0.7500000000000000  0.7500000000000000  0.7500000000000000   F   F   F
  0.4885033644413301  0.4885033644413301  0.4885033644413301   T   T   T
  0.9885033644413282  0.9885033644413282  0.9885033644413282   T   T   T
  0.6586904624211983  0.8008836059936005  0.2023340338918524   T   T   T
  0.3008836059935591  0.1586904624213697  0.7023340488916703   T   T   T
  0.2023340338916961  0.6586904624213689  0.8008836059935863   T   T   T
  0.7023340488918266  0.3008836059935733  0.1586904624211992   T   T   T
  0.8008836059937569  0.2023340338916819  0.6586904624212125   T   T   T
  0.1586904624212134  0.7023340488916561  0.3008836059937296   T   T   T
 
  0.00000000E+00  0.00000000E+00  0.00000000E+00
  0.00000000E+00  0.00000000E+00  0.00000000E+00
  0.00000000E+00  0.00000000E+00  0.00000000E+00
  0.00000000E+00  0.00000000E+00  0.00000000E+00
  0.00000000E+00  0.00000000E+00  0.00000000E+00
  0.00000000E+00  0.00000000E+00  0.00000000E+00
  0.00000000E+00  0.00000000E+00  0.00000000E+00
  0.00000000E+00  0.00000000E+00  0.00000000E+00
  0.00000000E+00  0.00000000E+00  0.00000000E+00
  0.00000000E+00  0.00000000E+00  0.00000000E+00
