New structure                           
   1.00000000000000     
     2.7388396035352449   -1.5812697822908117    4.4153592937630446
     0.0000000000000001    3.1625395645816350    4.4153592937630490
    -2.7388396035352449   -1.5812697822908117    4.4153592937630446
   Bi   Fe   O 
     2     2     6
Selective dynamics
Direct
  0.2500000000000000  0.2500000000000000  0.2500000000000000   F   F   F
  0.7500000000000000  0.7500000000000000  0.7500000000000000   F   F   F
  0.4835241462750008  0.4835241462750008  0.4835241462750008   T   T   T
  0.9835241462749885  0.9835241462749885  0.9835241462749885   T   T   T
  0.6529654954060928  0.7953072719567572  0.1979104055796979   T   T   T
  0.2953072719567564  0.1529654954061006  0.6979104205797031   T   T   T
  0.1979104055796979  0.6529654954060928  0.7953072719567572   T   T   T
  0.6979104205797031  0.2953072719567564  0.1529654954061006   T   T   T
  0.7953072719567572  0.1979104055796979  0.6529654954060928   T   T   T
  0.1529654954061006  0.6979104205797031  0.2953072719567564   T   T   T
 
  0.00000000E+00  0.00000000E+00  0.00000000E+00
  0.00000000E+00  0.00000000E+00  0.00000000E+00
  0.00000000E+00  0.00000000E+00  0.00000000E+00
  0.00000000E+00  0.00000000E+00  0.00000000E+00
  0.00000000E+00  0.00000000E+00  0.00000000E+00
  0.00000000E+00  0.00000000E+00  0.00000000E+00
  0.00000000E+00  0.00000000E+00  0.00000000E+00
  0.00000000E+00  0.00000000E+00  0.00000000E+00
  0.00000000E+00  0.00000000E+00  0.00000000E+00
  0.00000000E+00  0.00000000E+00  0.00000000E+00
