New structure                           
   1.00000000000000     
     2.6612071385746869   -1.5364485894748183    4.1230832734146166
    -0.0000000000000000    3.0728971789496367    4.1230832734146166
    -2.6612071385746869   -1.5364485894748183    4.1230832734146166
   Bi   Fe   O 
     2     2     6
Selective dynamics
Direct
  0.2500000000000000  0.2500000000000000  0.2500000000000000   F   F   F
  0.7500000000000000  0.7500000000000000  0.7500000000000000   F   F   F
  0.4954750724058687  0.4954750724058687  0.4954750724058687   T   T   T
  0.9954750724058615  0.9954750724058615  0.9954750724058615   T   T   T
  0.6752979112375918  0.8087162832608367  0.2165175768004268   T   T   T
  0.3087162832623177  0.1752979112362296  0.7165175918003343   T   T   T
  0.2165175768003364  0.6752979112362295  0.8087162832623178   T   T   T
  0.7165175918004244  0.3087162832608370  0.1752979112375917   T   T   T
  0.8087162832609487  0.2165175768017960  0.6752979112361320   T   T   T
  0.1752979112361321  0.7165175918017936  0.3087162832609487   T   T   T
 
  0.00000000E+00  0.00000000E+00  0.00000000E+00
  0.00000000E+00  0.00000000E+00  0.00000000E+00
  0.00000000E+00  0.00000000E+00  0.00000000E+00
  0.00000000E+00  0.00000000E+00  0.00000000E+00
  0.00000000E+00  0.00000000E+00  0.00000000E+00
  0.00000000E+00  0.00000000E+00  0.00000000E+00
  0.00000000E+00  0.00000000E+00  0.00000000E+00
  0.00000000E+00  0.00000000E+00  0.00000000E+00
  0.00000000E+00  0.00000000E+00  0.00000000E+00
  0.00000000E+00  0.00000000E+00  0.00000000E+00
