New structure                           
   1.00000000000000     
     2.7227403328877098   -1.5719748610623114    4.3402139328362122
     0.0000000000000001    3.1439497221246131    4.3402139328362130
    -2.7227403328877062   -1.5719748610623101    4.3402139328362148
   Bi   Fe   O 
     2     2     6
Selective dynamics
Direct
  0.2500000000000000  0.2500000000000000  0.2500000000000000   F   F   F
  0.7500000000000000  0.7500000000000000  0.7500000000000000   F   F   F
  0.4869747509929355  0.4869747509929355  0.4869747509929355   T   T   T
  0.9869747509929372  0.9869747509929372  0.9869747509929372   T   T   T
  0.6568754597365211  0.7992756482572737  0.2010324042273335   T   T   T
  0.2992756482572676  0.1568754597366556  0.7010324192272083   T   T   T
  0.2010324042272056  0.6568754597366561  0.7992756482572666   T   T   T
  0.7010324192273291  0.2992756482572747  0.1568754597365206   T   T   T
  0.7992756482573945  0.2010324042272056  0.6568754597365211   T   T   T
  0.1568754597365206  0.7010324192272012  0.2992756482573954   T   T   T
 
  0.00000000E+00  0.00000000E+00  0.00000000E+00
  0.00000000E+00  0.00000000E+00  0.00000000E+00
  0.00000000E+00  0.00000000E+00  0.00000000E+00
  0.00000000E+00  0.00000000E+00  0.00000000E+00
  0.00000000E+00  0.00000000E+00  0.00000000E+00
  0.00000000E+00  0.00000000E+00  0.00000000E+00
  0.00000000E+00  0.00000000E+00  0.00000000E+00
  0.00000000E+00  0.00000000E+00  0.00000000E+00
  0.00000000E+00  0.00000000E+00  0.00000000E+00
  0.00000000E+00  0.00000000E+00  0.00000000E+00
