New structure                           
   1.00000000000000     
     2.6543216695558405   -1.5324732086898287    4.1045740460423357
    -0.0000000000000000    3.0649464173796575    4.1045740460423357
    -2.6543216695558405   -1.5324732086898287    4.1045740460423357
   Bi   Fe   O 
     2     2     6
Selective dynamics
Direct
  0.2500000000000000  0.2500000000000000  0.2500000000000000   F   F   F
  0.7500000000000000  0.7500000000000000  0.7500000000000000   F   F   F
  0.4961411749199743  0.4961411749199743  0.4961411749199743   T   T   T
  0.9961411749199743  0.9961411749199743  0.9961411749199743   T   T   T
  0.6763713897683111  0.8096256821998252  0.2180804207270723   T   T   T
  0.3096256822034631  0.1763713897643543  0.7180804357273743   T   T   T
  0.2180804207273766  0.6763713897643614  0.8096256822034633   T   T   T
  0.7180804357270699  0.3096256821998251  0.1763713897683111   T   T   T
  0.8096256821995134  0.2180804207310219  0.6763713897646655   T   T   T
  0.1763713897646659  0.7180804357310198  0.3096256821995136   T   T   T
 
  0.00000000E+00  0.00000000E+00  0.00000000E+00
  0.00000000E+00  0.00000000E+00  0.00000000E+00
  0.00000000E+00  0.00000000E+00  0.00000000E+00
  0.00000000E+00  0.00000000E+00  0.00000000E+00
  0.00000000E+00  0.00000000E+00  0.00000000E+00
  0.00000000E+00  0.00000000E+00  0.00000000E+00
  0.00000000E+00  0.00000000E+00  0.00000000E+00
  0.00000000E+00  0.00000000E+00  0.00000000E+00
  0.00000000E+00  0.00000000E+00  0.00000000E+00
  0.00000000E+00  0.00000000E+00  0.00000000E+00
