New structure                           
   1.00000000000000     
     2.7046413016081212   -1.5615241121739689    4.2572831565948324
    -0.0000000000000000    3.1230482243479378    4.2572831565948324
    -2.7046413016081212   -1.5615241121739689    4.2572831565948324
   Bi   Fe   O 
     2     2     6
Selective dynamics
Direct
  0.2500000000000000  0.2500000000000000  0.2500000000000000   F   F   F
  0.7500000000000000  0.7500000000000000  0.7500000000000000   F   F   F
  0.4909469712645958  0.4909469712645958  0.4909469712645958   T   T   T
  0.9909469712646025  0.9909469712646025  0.9909469712646025   T   T   T
  0.6614651156624813  0.8034952887854481  0.2043361472518961   T   T   T
  0.3034952887845909  0.1614651157459887  0.7043361621692367   T   T   T
  0.2043361471692388  0.6614651157459889  0.8034952887845909   T   T   T
  0.7043361622518941  0.3034952887854548  0.1614651156624745   T   T   T
  0.8034952888681052  0.2043361471683819  0.6614651156633314   T   T   T
  0.1614651156633314  0.7043361621683797  0.3034952888681051   T   T   T
 
  0.00000000E+00  0.00000000E+00  0.00000000E+00
  0.00000000E+00  0.00000000E+00  0.00000000E+00
  0.00000000E+00  0.00000000E+00  0.00000000E+00
  0.00000000E+00  0.00000000E+00  0.00000000E+00
  0.00000000E+00  0.00000000E+00  0.00000000E+00
  0.00000000E+00  0.00000000E+00  0.00000000E+00
  0.00000000E+00  0.00000000E+00  0.00000000E+00
  0.00000000E+00  0.00000000E+00  0.00000000E+00
  0.00000000E+00  0.00000000E+00  0.00000000E+00
  0.00000000E+00  0.00000000E+00  0.00000000E+00
