New structure                           
   1.00000000000000     
     2.7303985280598000   -1.5763963246239610    4.3759367483740057
    -0.0000000000000000    3.1527926492479215    4.3759367483740057
    -2.7303985280598000   -1.5763963246239610    4.3759367483740057
   Bi   Fe   O 
     2     2     6
Selective dynamics
Direct
  0.2500000000000000  0.2500000000000000  0.2500000000000000   F   F   F
  0.7500000000000000  0.7500000000000000  0.7500000000000000   F   F   F
  0.4853598797981132  0.4853598797981132  0.4853598797981132   T   T   T
  0.9853598797981131  0.9853598797981131  0.9853598797981131   T   T   T
  0.6550481306611031  0.7974642388674769  0.1996274237354843   T   T   T
  0.2974642388674730  0.1550481306611403  0.6996274387354275   T   T   T
  0.1996274237354299  0.6550481306611403  0.7974642388674802   T   T   T
  0.6996274387354821  0.2974642388674700  0.1550481306611032   T   T   T
  0.7974642388675242  0.1996274237354401  0.6550481306610860   T   T   T
  0.1550481306610859  0.6996274387354378  0.2974642388675244   T   T   T
 
  0.00000000E+00  0.00000000E+00  0.00000000E+00
  0.00000000E+00  0.00000000E+00  0.00000000E+00
  0.00000000E+00  0.00000000E+00  0.00000000E+00
  0.00000000E+00  0.00000000E+00  0.00000000E+00
  0.00000000E+00  0.00000000E+00  0.00000000E+00
  0.00000000E+00  0.00000000E+00  0.00000000E+00
  0.00000000E+00  0.00000000E+00  0.00000000E+00
  0.00000000E+00  0.00000000E+00  0.00000000E+00
  0.00000000E+00  0.00000000E+00  0.00000000E+00
  0.00000000E+00  0.00000000E+00  0.00000000E+00
