New structure                           
   1.00000000000000     
     2.7080288312861267   -1.5634807329377534    4.2736970877180305
    -0.0000000000000000    3.1269614658755058    4.2736970877180305
    -2.7080288312861267   -1.5634807329377534    4.2736970877180305
   Bi   Fe   O 
     2     2     6
Selective dynamics
Direct
  0.2500000000000000  0.2500000000000000  0.2500000000000000   F   F   F
  0.7500000000000000  0.7500000000000000  0.7500000000000000   F   F   F
  0.4901739761156896  0.4901739761156896  0.4901739761156896   T   T   T
  0.9901739761156970  0.9901739761156970  0.9901739761156970   T   T   T
  0.6605665419017458  0.8027017155668756  0.2037576649479070   T   T   T
  0.3027017155706379  0.1605665419213798  0.7037576799245013   T   T   T
  0.2037576649245036  0.6605665419213800  0.8027017155706380   T   T   T
  0.7037576799479046  0.3027017155668827  0.1605665419017460   T   T   T
  0.8027017155902791  0.2037576649282733  0.6605665418979764   T   T   T
  0.1605665418979765  0.7037576799282707  0.3027017155902790   T   T   T
 
  0.00000000E+00  0.00000000E+00  0.00000000E+00
  0.00000000E+00  0.00000000E+00  0.00000000E+00
  0.00000000E+00  0.00000000E+00  0.00000000E+00
  0.00000000E+00  0.00000000E+00  0.00000000E+00
  0.00000000E+00  0.00000000E+00  0.00000000E+00
  0.00000000E+00  0.00000000E+00  0.00000000E+00
  0.00000000E+00  0.00000000E+00  0.00000000E+00
  0.00000000E+00  0.00000000E+00  0.00000000E+00
  0.00000000E+00  0.00000000E+00  0.00000000E+00
  0.00000000E+00  0.00000000E+00  0.00000000E+00
