New structure                           
   1.00000000000000     
     2.6629316849804376   -1.5374439140066274    4.1281695880130380
     0.0000000000000000    3.0748878280132548    4.1281695880130380
    -2.6629316849804376   -1.5374439140066274    4.1281695880130380
   Bi   Fe   O 
     2     2     6
Selective dynamics
Direct
  0.2500000000000000  0.2500000000000000  0.2500000000000000   F   F   F
  0.7500000000000000  0.7500000000000000  0.7500000000000000   F   F   F
  0.4953167545619578  0.4953167545619578  0.4953167545619578   T   T   T
  0.9953167545619582  0.9953167545619582  0.9953167545619582   T   T   T
  0.6750558938341268  0.8084692388816554  0.2161217761198858   T   T   T
  0.3084692388966102  0.1750558938287099  0.7161217911103598   T   T   T
  0.2161217761103622  0.6750558938287097  0.8084692388966100   T   T   T
  0.7161217911198832  0.3084692388816554  0.1750558938341266   T   T   T
  0.8084692388912006  0.2161217761253026  0.6750558938191792   T   T   T
  0.1750558938191793  0.7161217911253001  0.3084692388912004   T   T   T
 
  0.00000000E+00  0.00000000E+00  0.00000000E+00
  0.00000000E+00  0.00000000E+00  0.00000000E+00
  0.00000000E+00  0.00000000E+00  0.00000000E+00
  0.00000000E+00  0.00000000E+00  0.00000000E+00
  0.00000000E+00  0.00000000E+00  0.00000000E+00
  0.00000000E+00  0.00000000E+00  0.00000000E+00
  0.00000000E+00  0.00000000E+00  0.00000000E+00
  0.00000000E+00  0.00000000E+00  0.00000000E+00
  0.00000000E+00  0.00000000E+00  0.00000000E+00
  0.00000000E+00  0.00000000E+00  0.00000000E+00
