Ba12 Ti12 O36                           
   1.00000000000000     
     7.8123336682456257    0.0000000000000000    0.0000000000000000
     0.0000000000000000    7.8123336682456257   -0.0000000000000000
     0.0000000000000000   -0.0000000000000000   11.7191198735164832
   La   Ba   Ti   O 
     1    11    12    36
Selective dynamics
Direct
 -0.0000000000000000  0.0000000000000000  0.0000744627716552   T   T   T
 -0.0000000000000000  0.0000000000000000  0.3341700414841533   T   T   T
 -0.0000000000000000  0.0000000000000000  0.6659690588514822   T   T   T
 -0.0000000000000000  0.5000000000000000  0.0000684613053148   T   T   T
 -0.0000000000000000  0.5000000000000000  0.3331012154609959   T   T   T
 -0.0000000000000000  0.5000000000000000  0.6670371387890862   T   T   T
  0.5000000000000000  0.0000000000000000  0.0000684613053148   T   T   T
  0.5000000000000000  0.0000000000000000  0.3331012154609959   T   T   T
  0.5000000000000000  0.0000000000000000  0.6670371387890862   T   T   T
  0.5000000000000000  0.5000000000000000  0.0000686094646930   T   T   T
  0.5000000000000000  0.5000000000000000  0.3331576188615422   T   T   T
  0.5000000000000000  0.5000000000000000  0.6669816421954391   T   T   T
  0.2497455001486812  0.2497455001486812  0.1666586522638578   T   T   T
  0.2500574902141925  0.2500574902141925  0.5000710038781930   T   T   T
  0.2497445859254833  0.2497445859254833  0.8334800758096390   T   T   T
  0.2497455001486812  0.7502544998513185  0.1666586522638578   T   T   T
  0.2500574902141925  0.7499425097858076  0.5000710038781930   T   T   T
  0.2497445859254833  0.7502554140745166  0.8334800758096390   T   T   T
  0.7502544998513185  0.2497455001486812  0.1666586522638578   T   T   T
  0.7499425097858076  0.2500574902141925  0.5000710038781930   T   T   T
  0.7502554140745166  0.2497445859254833  0.8334800758096390   T   T   T
  0.7502544998513185  0.7502544998513185  0.1666586522638578   T   T   T
  0.7499425097858076  0.7499425097858076  0.5000710038781930   T   T   T
  0.7502554140745166  0.7502554140745166  0.8334800758096390   T   T   T
 -0.0000000000000000  0.2430462461851171  0.1620836248047839   T   T   T
 -0.0000000000000000  0.2508801224553620  0.5000678697347655   T   T   T
 -0.0000000000000000  0.2430485507392229  0.8380520137595384   T   T   T
 -0.0000000000000000  0.7569537538148827  0.1620836248047839   T   T   T
 -0.0000000000000000  0.7491198775446378  0.5000678697347655   T   T   T
 -0.0000000000000000  0.7569514492607773  0.8380520137595384   T   T   T
  0.5000000000000000  0.2485301445284499  0.1649369456325532   T   T   T
  0.5000000000000000  0.2501781454052469  0.5000685218079839   T   T   T
  0.5000000000000000  0.2485309956297786  0.8351994872770045   T   T   T
  0.5000000000000000  0.7514698554715501  0.1649369456325532   T   T   T
  0.5000000000000000  0.7498218545947533  0.5000685218079839   T   T   T
  0.5000000000000000  0.7514690043702216  0.8351994872770045   T   T   T
  0.2430462461851171  0.0000000000000000  0.1620836248047839   T   T   T
  0.2508801224553620  0.0000000000000000  0.5000678697347655   T   T   T
  0.2430485507392229  0.0000000000000000  0.8380520137595384   T   T   T
  0.2485301445284499  0.5000000000000000  0.1649369456325532   T   T   T
  0.2501781454052469  0.5000000000000000  0.5000685218079839   T   T   T
  0.2485309956297786  0.5000000000000000  0.8351994872770045   T   T   T
  0.7569537538148827  0.0000000000000000  0.1620836248047839   T   T   T
  0.7491198775446378  0.0000000000000000  0.5000678697347655   T   T   T
  0.7569514492607773  0.0000000000000000  0.8380520137595384   T   T   T
  0.7514698554715501  0.5000000000000000  0.1649369456325532   T   T   T
  0.7498218545947533  0.5000000000000000  0.5000685218079839   T   T   T
  0.7514690043702216  0.5000000000000000  0.8351994872770045   T   T   T
  0.2431732458288098  0.2431732458288098  0.0000660852055365   T   T   T
  0.2493793072748024  0.2493793072748024  0.3323514103819486   T   T   T
  0.2493790620570006  0.2493790620570006  0.6677835432592683   T   T   T
  0.2431732458288098  0.7568267541711902  0.0000660852055365   T   T   T
  0.2493793072748024  0.7506206927251976  0.3323514103819486   T   T   T
  0.2493790620570006  0.7506209379429992  0.6677835432592683   T   T   T
  0.7568267541711902  0.2431732458288098  0.0000660852055365   T   T   T
  0.7506206927251976  0.2493793072748024  0.3323514103819486   T   T   T
  0.7506209379429992  0.2493790620570006  0.6677835432592683   T   T   T
  0.7568267541711902  0.7568267541711902  0.0000660852055365   T   T   T
  0.7506206927251976  0.7506206927251976  0.3323514103819486   T   T   T
  0.7506209379429992  0.7506209379429992  0.6677835432592683   T   T   T
 
  0.00000000E+00  0.00000000E+00  0.00000000E+00
  0.00000000E+00  0.00000000E+00  0.00000000E+00
  0.00000000E+00  0.00000000E+00  0.00000000E+00
  0.00000000E+00  0.00000000E+00  0.00000000E+00
  0.00000000E+00  0.00000000E+00  0.00000000E+00
  0.00000000E+00  0.00000000E+00  0.00000000E+00
  0.00000000E+00  0.00000000E+00  0.00000000E+00
  0.00000000E+00  0.00000000E+00  0.00000000E+00
  0.00000000E+00  0.00000000E+00  0.00000000E+00
  0.00000000E+00  0.00000000E+00  0.00000000E+00
  0.00000000E+00  0.00000000E+00  0.00000000E+00
  0.00000000E+00  0.00000000E+00  0.00000000E+00
  0.00000000E+00  0.00000000E+00  0.00000000E+00
  0.00000000E+00  0.00000000E+00  0.00000000E+00
  0.00000000E+00  0.00000000E+00  0.00000000E+00
  0.00000000E+00  0.00000000E+00  0.00000000E+00
  0.00000000E+00  0.00000000E+00  0.00000000E+00
  0.00000000E+00  0.00000000E+00  0.00000000E+00
  0.00000000E+00  0.00000000E+00  0.00000000E+00
  0.00000000E+00  0.00000000E+00  0.00000000E+00
  0.00000000E+00  0.00000000E+00  0.00000000E+00
  0.00000000E+00  0.00000000E+00  0.00000000E+00
  0.00000000E+00  0.00000000E+00  0.00000000E+00
  0.00000000E+00  0.00000000E+00  0.00000000E+00
  0.00000000E+00  0.00000000E+00  0.00000000E+00
  0.00000000E+00  0.00000000E+00  0.00000000E+00
  0.00000000E+00  0.00000000E+00  0.00000000E+00
  0.00000000E+00  0.00000000E+00  0.00000000E+00
  0.00000000E+00  0.00000000E+00  0.00000000E+00
  0.00000000E+00  0.00000000E+00  0.00000000E+00
  0.00000000E+00  0.00000000E+00  0.00000000E+00
  0.00000000E+00  0.00000000E+00  0.00000000E+00
  0.00000000E+00  0.00000000E+00  0.00000000E+00
  0.00000000E+00  0.00000000E+00  0.00000000E+00
  0.00000000E+00  0.00000000E+00  0.00000000E+00
  0.00000000E+00  0.00000000E+00  0.00000000E+00
  0.00000000E+00  0.00000000E+00  0.00000000E+00
  0.00000000E+00  0.00000000E+00  0.00000000E+00
  0.00000000E+00  0.00000000E+00  0.00000000E+00
  0.00000000E+00  0.00000000E+00  0.00000000E+00
  0.00000000E+00  0.00000000E+00  0.00000000E+00
  0.00000000E+00  0.00000000E+00  0.00000000E+00
  0.00000000E+00  0.00000000E+00  0.00000000E+00
  0.00000000E+00  0.00000000E+00  0.00000000E+00
  0.00000000E+00  0.00000000E+00  0.00000000E+00
  0.00000000E+00  0.00000000E+00  0.00000000E+00
  0.00000000E+00  0.00000000E+00  0.00000000E+00
  0.00000000E+00  0.00000000E+00  0.00000000E+00
  0.00000000E+00  0.00000000E+00  0.00000000E+00
  0.00000000E+00  0.00000000E+00  0.00000000E+00
  0.00000000E+00  0.00000000E+00  0.00000000E+00
  0.00000000E+00  0.00000000E+00  0.00000000E+00
  0.00000000E+00  0.00000000E+00  0.00000000E+00
  0.00000000E+00  0.00000000E+00  0.00000000E+00
  0.00000000E+00  0.00000000E+00  0.00000000E+00
  0.00000000E+00  0.00000000E+00  0.00000000E+00
  0.00000000E+00  0.00000000E+00  0.00000000E+00
  0.00000000E+00  0.00000000E+00  0.00000000E+00
  0.00000000E+00  0.00000000E+00  0.00000000E+00
  0.00000000E+00  0.00000000E+00  0.00000000E+00
