Ba12 Ti12 O36                           
   1.00000000000000     
     7.8351202500489192    0.0000000000000000    0.0000000000000000
     0.0000000000000000    7.8351202500489192   -0.0000000000000000
     0.0000000000000000    0.0000000000000000   11.7527862795579239
   La   Ba   Ti   O 
     1    11    12    36
Selective dynamics
Direct
  0.0000000000000000  0.0000000000000000  0.0002883566787240   T   T   T
  0.0000000000000000  0.0000000000000000  0.3343709987019677   T   T   T
  0.0000000000000000  0.0000000000000000  0.6662138109423510   T   T   T
  0.0000000000000000  0.5000000000000000  0.0002938026477773   T   T   T
  0.0000000000000000  0.5000000000000000  0.3333513681392953   T   T   T
  0.0000000000000000  0.5000000000000000  0.6672333611996385   T   T   T
  0.5000000000000000  0.0000000000000000  0.0002938026477773   T   T   T
  0.5000000000000000  0.0000000000000000  0.3333513681392953   T   T   T
  0.5000000000000000  0.0000000000000000  0.6672333611996385   T   T   T
  0.5000000000000000  0.5000000000000000  0.0002928016200066   T   T   T
  0.5000000000000000  0.5000000000000000  0.3333741070916384   T   T   T
  0.5000000000000000  0.5000000000000000  0.6672129973190729   T   T   T
  0.2497105620478967  0.2497105620478967  0.1668664306768448   T   T   T
  0.2500443224838126  0.2500443224838126  0.5002923024261459   T   T   T
  0.2497109393347543  0.2497109393347543  0.8337181221110365   T   T   T
  0.2497105620478967  0.7502894379521032  0.1668664306768448   T   T   T
  0.2500443224838126  0.7499556775161873  0.5002923024261459   T   T   T
  0.2497109393347543  0.7502890606652457  0.8337181221110365   T   T   T
  0.7502894379521032  0.2497105620478967  0.1668664306768448   T   T   T
  0.7499556775161873  0.2500443224838126  0.5002923024261459   T   T   T
  0.7502890606652457  0.2497109393347543  0.8337181221110365   T   T   T
  0.7502894379521032  0.7502894379521032  0.1668664306768448   T   T   T
  0.7499556775161873  0.7499556775161873  0.5002923024261459   T   T   T
  0.7502890606652457  0.7502890606652457  0.8337181221110365   T   T   T
  0.0000000000000000  0.2430146037664073  0.1622766094763843   T   T   T
  0.0000000000000000  0.2508565951042814  0.5002948628162461   T   T   T
  0.0000000000000000  0.2430096746379034  0.8383248158291370   T   T   T
  0.0000000000000000  0.7569853962335928  0.1622766094763843   T   T   T
  0.0000000000000000  0.7491434048957187  0.5002948628162461   T   T   T
  0.0000000000000000  0.7569903253620965  0.8383248158291370   T   T   T
  0.5000000000000000  0.2485043773565559  0.1651608237266359   T   T   T
  0.5000000000000000  0.2501584703397098  0.5003003672733278   T   T   T
  0.5000000000000000  0.2485030294961330  0.8354280066305680   T   T   T
  0.5000000000000000  0.7514956226434443  0.1651608237266359   T   T   T
  0.5000000000000000  0.7498415296602902  0.5003003672733278   T   T   T
  0.5000000000000000  0.7514969705038670  0.8354280066305680   T   T   T
  0.2430146037664073  0.0000000000000000  0.1622766094763843   T   T   T
  0.2508565951042814  0.0000000000000000  0.5002948628162461   T   T   T
  0.2430096746379034  0.0000000000000000  0.8383248158291370   T   T   T
  0.2485043773565559  0.5000000000000000  0.1651608237266359   T   T   T
  0.2501584703397098  0.5000000000000000  0.5003003672733278   T   T   T
  0.2485030294961330  0.5000000000000000  0.8354280066305680   T   T   T
  0.7569853962335928  0.0000000000000000  0.1622766094763843   T   T   T
  0.7491434048957187  0.0000000000000000  0.5002948628162461   T   T   T
  0.7569903253620965  0.0000000000000000  0.8383248158291370   T   T   T
  0.7514956226434443  0.5000000000000000  0.1651608237266359   T   T   T
  0.7498415296602902  0.5000000000000000  0.5003003672733278   T   T   T
  0.7514969705038670  0.5000000000000000  0.8354280066305680   T   T   T
  0.2431523580773170  0.2431523580773170  0.0002970477195282   T   T   T
  0.2493585562059707  0.2493585562059707  0.3325530008239053   T   T   T
  0.2493503352832100  0.2493503352832100  0.6680450764084471   T   T   T
  0.2431523580773170  0.7568476419226831  0.0002970477195282   T   T   T
  0.2493585562059707  0.7506414437940293  0.3325530008239053   T   T   T
  0.2493503352832100  0.7506496647167901  0.6680450764084471   T   T   T
  0.7568476419226831  0.2431523580773170  0.0002970477195282   T   T   T
  0.7506414437940293  0.2493585562059707  0.3325530008239053   T   T   T
  0.7506496647167901  0.2493503352832100  0.6680450764084471   T   T   T
  0.7568476419226831  0.7568476419226831  0.0002970477195282   T   T   T
  0.7506414437940293  0.7506414437940293  0.3325530008239053   T   T   T
  0.7506496647167901  0.7506496647167901  0.6680450764084471   T   T   T
 
  0.00000000E+00  0.00000000E+00  0.00000000E+00
  0.00000000E+00  0.00000000E+00  0.00000000E+00
  0.00000000E+00  0.00000000E+00  0.00000000E+00
  0.00000000E+00  0.00000000E+00  0.00000000E+00
  0.00000000E+00  0.00000000E+00  0.00000000E+00
  0.00000000E+00  0.00000000E+00  0.00000000E+00
  0.00000000E+00  0.00000000E+00  0.00000000E+00
  0.00000000E+00  0.00000000E+00  0.00000000E+00
  0.00000000E+00  0.00000000E+00  0.00000000E+00
  0.00000000E+00  0.00000000E+00  0.00000000E+00
  0.00000000E+00  0.00000000E+00  0.00000000E+00
  0.00000000E+00  0.00000000E+00  0.00000000E+00
  0.00000000E+00  0.00000000E+00  0.00000000E+00
  0.00000000E+00  0.00000000E+00  0.00000000E+00
  0.00000000E+00  0.00000000E+00  0.00000000E+00
  0.00000000E+00  0.00000000E+00  0.00000000E+00
  0.00000000E+00  0.00000000E+00  0.00000000E+00
  0.00000000E+00  0.00000000E+00  0.00000000E+00
  0.00000000E+00  0.00000000E+00  0.00000000E+00
  0.00000000E+00  0.00000000E+00  0.00000000E+00
  0.00000000E+00  0.00000000E+00  0.00000000E+00
  0.00000000E+00  0.00000000E+00  0.00000000E+00
  0.00000000E+00  0.00000000E+00  0.00000000E+00
  0.00000000E+00  0.00000000E+00  0.00000000E+00
  0.00000000E+00  0.00000000E+00  0.00000000E+00
  0.00000000E+00  0.00000000E+00  0.00000000E+00
  0.00000000E+00  0.00000000E+00  0.00000000E+00
  0.00000000E+00  0.00000000E+00  0.00000000E+00
  0.00000000E+00  0.00000000E+00  0.00000000E+00
  0.00000000E+00  0.00000000E+00  0.00000000E+00
  0.00000000E+00  0.00000000E+00  0.00000000E+00
  0.00000000E+00  0.00000000E+00  0.00000000E+00
  0.00000000E+00  0.00000000E+00  0.00000000E+00
  0.00000000E+00  0.00000000E+00  0.00000000E+00
  0.00000000E+00  0.00000000E+00  0.00000000E+00
  0.00000000E+00  0.00000000E+00  0.00000000E+00
  0.00000000E+00  0.00000000E+00  0.00000000E+00
  0.00000000E+00  0.00000000E+00  0.00000000E+00
  0.00000000E+00  0.00000000E+00  0.00000000E+00
  0.00000000E+00  0.00000000E+00  0.00000000E+00
  0.00000000E+00  0.00000000E+00  0.00000000E+00
  0.00000000E+00  0.00000000E+00  0.00000000E+00
  0.00000000E+00  0.00000000E+00  0.00000000E+00
  0.00000000E+00  0.00000000E+00  0.00000000E+00
  0.00000000E+00  0.00000000E+00  0.00000000E+00
  0.00000000E+00  0.00000000E+00  0.00000000E+00
  0.00000000E+00  0.00000000E+00  0.00000000E+00
  0.00000000E+00  0.00000000E+00  0.00000000E+00
  0.00000000E+00  0.00000000E+00  0.00000000E+00
  0.00000000E+00  0.00000000E+00  0.00000000E+00
  0.00000000E+00  0.00000000E+00  0.00000000E+00
  0.00000000E+00  0.00000000E+00  0.00000000E+00
  0.00000000E+00  0.00000000E+00  0.00000000E+00
  0.00000000E+00  0.00000000E+00  0.00000000E+00
  0.00000000E+00  0.00000000E+00  0.00000000E+00
  0.00000000E+00  0.00000000E+00  0.00000000E+00
  0.00000000E+00  0.00000000E+00  0.00000000E+00
  0.00000000E+00  0.00000000E+00  0.00000000E+00
  0.00000000E+00  0.00000000E+00  0.00000000E+00
  0.00000000E+00  0.00000000E+00  0.00000000E+00
