Ba12 Ti12 O36                           
   1.00000000000000     
     7.9652124254060412    0.0000000000000000    0.0000000000000000
     0.0000000000000000    7.9652124254060412    0.0000000000000000
     0.0000000000000000    0.0000000000000000   11.9483328508311182
   La   Ba   Ti   O 
     1    11    12    36
Selective dynamics
Direct
  0.0000000000000000 -0.0000000000000000  0.0030485992797272   T   T   T
  0.0000000000000000 -0.0000000000000000  0.3371942194507457   T   T   T
  0.0000000000000000 -0.0000000000000000  0.6691119787186446   T   T   T
  0.0000000000000000  0.5000000000000000  0.0031793165087908   T   T   T
  0.0000000000000000  0.5000000000000000  0.3363830168277745   T   T   T
  0.0000000000000000  0.5000000000000000  0.6699307878107192   T   T   T
  0.5000000000000000 -0.0000000000000000  0.0031793165087908   T   T   T
  0.5000000000000000 -0.0000000000000000  0.3363830168277745   T   T   T
  0.5000000000000000 -0.0000000000000000  0.6699307878107192   T   T   T
  0.5000000000000000  0.5000000000000000  0.0031715538482540   T   T   T
  0.5000000000000000  0.5000000000000000  0.3360914256164246   T   T   T
  0.5000000000000000  0.5000000000000000  0.6702170611039808   T   T   T
  0.2494767250538591  0.2494767250538591  0.1695024134215869   T   T   T
  0.2500398471536657  0.2500398471536657  0.5030473656750879   T   T   T
  0.2495021721676949  0.2495021721676949  0.8366481216207172   T   T   T
  0.2494767250538591  0.7505232749461409  0.1695024134215869   T   T   T
  0.2500398471536657  0.7499601528463341  0.5030473656750879   T   T   T
  0.2495021721676949  0.7504978278323050  0.8366481216207172   T   T   T
  0.7505232749461409  0.2494767250538591  0.1695024134215869   T   T   T
  0.7499601528463341  0.2500398471536657  0.5030473656750879   T   T   T
  0.7504978278323050  0.2495021721676949  0.8366481216207172   T   T   T
  0.7505232749461409  0.7505232749461409  0.1695024134215869   T   T   T
  0.7499601528463341  0.7499601528463341  0.5030473656750879   T   T   T
  0.7504978278323050  0.7504978278323050  0.8366481216207172   T   T   T
  0.0000000000000000  0.2428228832418731  0.1651372269078183   T   T   T
  0.0000000000000000  0.2507747342684744  0.5032392957026930   T   T   T
  0.0000000000000000  0.2427617307890143  0.8414353578580970   T   T   T
  0.0000000000000000  0.7571771167581266  0.1651372269078183   T   T   T
  0.0000000000000000  0.7492252657315254  0.5032392957026930   T   T   T
  0.0000000000000000  0.7572382692109855  0.8414353578580970   T   T   T
  0.5000000000000000  0.2483781470019394  0.1679718454413175   T   T   T
  0.5000000000000000  0.2501544126120326  0.5032597399766062   T   T   T
  0.5000000000000000  0.2483676497069605  0.8385093178588705   T   T   T
  0.5000000000000000  0.7516218529980604  0.1679718454413175   T   T   T
  0.5000000000000000  0.7498455873879674  0.5032597399766062   T   T   T
  0.5000000000000000  0.7516323502930393  0.8385093178588705   T   T   T
  0.2428228832418731 -0.0000000000000000  0.1651372269078183   T   T   T
  0.2507747342684744 -0.0000000000000000  0.5032392957026930   T   T   T
  0.2427617307890143 -0.0000000000000000  0.8414353578580970   T   T   T
  0.2483781470019394  0.5000000000000000  0.1679718454413175   T   T   T
  0.2501544126120326  0.5000000000000000  0.5032597399766062   T   T   T
  0.2483676497069605  0.5000000000000000  0.8385093178588705   T   T   T
  0.7571771167581266 -0.0000000000000000  0.1651372269078183   T   T   T
  0.7492252657315254 -0.0000000000000000  0.5032392957026930   T   T   T
  0.7572382692109855 -0.0000000000000000  0.8414353578580970   T   T   T
  0.7516218529980604  0.5000000000000000  0.1679718454413175   T   T   T
  0.7498455873879674  0.5000000000000000  0.5032597399766062   T   T   T
  0.7516323502930393  0.5000000000000000  0.8385093178588705   T   T   T
  0.2427997347641632  0.2427997347641632  0.0032913555377868   T   T   T
  0.2493298404780704  0.2493298404780704  0.3353626944534254   T   T   T
  0.2492941181243132  0.2492941181243132  0.6712719954679019   T   T   T
  0.2427997347641632  0.7572002652358369  0.0032913555377868   T   T   T
  0.2493298404780704  0.7506701595219294  0.3353626944534254   T   T   T
  0.2492941181243132  0.7507058818756872  0.6712719954679019   T   T   T
  0.7572002652358369  0.2427997347641632  0.0032913555377868   T   T   T
  0.7506701595219294  0.2493298404780704  0.3353626944534254   T   T   T
  0.7507058818756872  0.2492941181243132  0.6712719954679019   T   T   T
  0.7572002652358369  0.7572002652358369  0.0032913555377868   T   T   T
  0.7506701595219294  0.7506701595219294  0.3353626944534254   T   T   T
  0.7507058818756872  0.7507058818756872  0.6712719954679019   T   T   T
 
  0.00000000E+00  0.00000000E+00  0.00000000E+00
  0.00000000E+00  0.00000000E+00  0.00000000E+00
  0.00000000E+00  0.00000000E+00  0.00000000E+00
  0.00000000E+00  0.00000000E+00  0.00000000E+00
  0.00000000E+00  0.00000000E+00  0.00000000E+00
  0.00000000E+00  0.00000000E+00  0.00000000E+00
  0.00000000E+00  0.00000000E+00  0.00000000E+00
  0.00000000E+00  0.00000000E+00  0.00000000E+00
  0.00000000E+00  0.00000000E+00  0.00000000E+00
  0.00000000E+00  0.00000000E+00  0.00000000E+00
  0.00000000E+00  0.00000000E+00  0.00000000E+00
  0.00000000E+00  0.00000000E+00  0.00000000E+00
  0.00000000E+00  0.00000000E+00  0.00000000E+00
  0.00000000E+00  0.00000000E+00  0.00000000E+00
  0.00000000E+00  0.00000000E+00  0.00000000E+00
  0.00000000E+00  0.00000000E+00  0.00000000E+00
  0.00000000E+00  0.00000000E+00  0.00000000E+00
  0.00000000E+00  0.00000000E+00  0.00000000E+00
  0.00000000E+00  0.00000000E+00  0.00000000E+00
  0.00000000E+00  0.00000000E+00  0.00000000E+00
  0.00000000E+00  0.00000000E+00  0.00000000E+00
  0.00000000E+00  0.00000000E+00  0.00000000E+00
  0.00000000E+00  0.00000000E+00  0.00000000E+00
  0.00000000E+00  0.00000000E+00  0.00000000E+00
  0.00000000E+00  0.00000000E+00  0.00000000E+00
  0.00000000E+00  0.00000000E+00  0.00000000E+00
  0.00000000E+00  0.00000000E+00  0.00000000E+00
  0.00000000E+00  0.00000000E+00  0.00000000E+00
  0.00000000E+00  0.00000000E+00  0.00000000E+00
  0.00000000E+00  0.00000000E+00  0.00000000E+00
  0.00000000E+00  0.00000000E+00  0.00000000E+00
  0.00000000E+00  0.00000000E+00  0.00000000E+00
  0.00000000E+00  0.00000000E+00  0.00000000E+00
  0.00000000E+00  0.00000000E+00  0.00000000E+00
  0.00000000E+00  0.00000000E+00  0.00000000E+00
  0.00000000E+00  0.00000000E+00  0.00000000E+00
  0.00000000E+00  0.00000000E+00  0.00000000E+00
  0.00000000E+00  0.00000000E+00  0.00000000E+00
  0.00000000E+00  0.00000000E+00  0.00000000E+00
  0.00000000E+00  0.00000000E+00  0.00000000E+00
  0.00000000E+00  0.00000000E+00  0.00000000E+00
  0.00000000E+00  0.00000000E+00  0.00000000E+00
  0.00000000E+00  0.00000000E+00  0.00000000E+00
  0.00000000E+00  0.00000000E+00  0.00000000E+00
  0.00000000E+00  0.00000000E+00  0.00000000E+00
  0.00000000E+00  0.00000000E+00  0.00000000E+00
  0.00000000E+00  0.00000000E+00  0.00000000E+00
  0.00000000E+00  0.00000000E+00  0.00000000E+00
  0.00000000E+00  0.00000000E+00  0.00000000E+00
  0.00000000E+00  0.00000000E+00  0.00000000E+00
  0.00000000E+00  0.00000000E+00  0.00000000E+00
  0.00000000E+00  0.00000000E+00  0.00000000E+00
  0.00000000E+00  0.00000000E+00  0.00000000E+00
  0.00000000E+00  0.00000000E+00  0.00000000E+00
  0.00000000E+00  0.00000000E+00  0.00000000E+00
  0.00000000E+00  0.00000000E+00  0.00000000E+00
  0.00000000E+00  0.00000000E+00  0.00000000E+00
  0.00000000E+00  0.00000000E+00  0.00000000E+00
  0.00000000E+00  0.00000000E+00  0.00000000E+00
  0.00000000E+00  0.00000000E+00  0.00000000E+00
