Ba12 Ti12 O36                           
   1.00000000000000     
     7.9364499912424122    0.0000000000000000    0.0000000000000000
     0.0000000000000000    7.9364499912424122    0.0000000000000000
     0.0000000000000000    0.0000000000000000   11.9054101617367039
   La   Ba   Ti   O 
     1    11    12    36
Selective dynamics
Direct
  0.0000000000000000  0.0000000000000000  0.0024800767936529   T   T   T
  0.0000000000000000  0.0000000000000000  0.3365866714569066   T   T   T
  0.0000000000000000  0.0000000000000000  0.6684883359321542   T   T   T
  0.0000000000000000  0.5000000000000000  0.0025463136324378   T   T   T
  0.0000000000000000  0.5000000000000000  0.3357229565224114   T   T   T
  0.0000000000000000  0.5000000000000000  0.6693449528066425   T   T   T
  0.5000000000000000  0.0000000000000000  0.0025463136324378   T   T   T
  0.5000000000000000  0.0000000000000000  0.3357229565224114   T   T   T
  0.5000000000000000  0.0000000000000000  0.6693449528066425   T   T   T
  0.5000000000000000  0.5000000000000000  0.0025477931260604   T   T   T
  0.5000000000000000  0.5000000000000000  0.3354984233608895   T   T   T
  0.5000000000000000  0.5000000000000000  0.6695503797877503   T   T   T
  0.2495356957721066  0.2495356957721066  0.1689689298844330   T   T   T
  0.2500442203855510  0.2500442203855510  0.5024985395251306   T   T   T
  0.2495521515678371  0.2495521515678371  0.8360579161139934   T   T   T
  0.2495356957721066  0.7504643042278933  0.1689689298844330   T   T   T
  0.2500442203855510  0.7499557796144488  0.5024985395251306   T   T   T
  0.2495521515678371  0.7504478484321631  0.8360579161139934   T   T   T
  0.7504643042278933  0.2495356957721066  0.1689689298844330   T   T   T
  0.7499557796144488  0.2500442203855510  0.5024985395251306   T   T   T
  0.7504478484321631  0.2495521515678371  0.8360579161139934   T   T   T
  0.7504643042278933  0.7504643042278933  0.1689689298844330   T   T   T
  0.7499557796144488  0.7499557796144488  0.5024985395251306   T   T   T
  0.7504478484321631  0.7504478484321631  0.8360579161139934   T   T   T
  0.0000000000000000  0.2428612211304297  0.1644677586433084   T   T   T
  0.0000000000000000  0.2507920925793823  0.5025897349123708   T   T   T
  0.0000000000000000  0.2428374677354549  0.8407097308706588   T   T   T
  0.0000000000000000  0.7571387788695703  0.1644677586433084   T   T   T
  0.0000000000000000  0.7492079074206176  0.5025897349123708   T   T   T
  0.0000000000000000  0.7571625322645452  0.8407097308706588   T   T   T
  0.5000000000000000  0.2484075274988594  0.1673375220502279   T   T   T
  0.5000000000000000  0.2501565306070468  0.5025652412986298   T   T   T
  0.5000000000000000  0.2484090452642508  0.8378296180723417   T   T   T
  0.5000000000000000  0.7515924725011407  0.1673375220502279   T   T   T
  0.5000000000000000  0.7498434693929529  0.5025652412986298   T   T   T
  0.5000000000000000  0.7515909547357493  0.8378296180723417   T   T   T
  0.2428612211304297  0.0000000000000000  0.1644677586433084   T   T   T
  0.2507920925793823  0.0000000000000000  0.5025897349123708   T   T   T
  0.2428374677354549  0.0000000000000000  0.8407097308706588   T   T   T
  0.2484075274988594  0.5000000000000000  0.1673375220502279   T   T   T
  0.2501565306070468  0.5000000000000000  0.5025652412986298   T   T   T
  0.2484090452642508  0.5000000000000000  0.8378296180723417   T   T   T
  0.7571387788695703  0.0000000000000000  0.1644677586433084   T   T   T
  0.7492079074206176  0.0000000000000000  0.5025897349123708   T   T   T
  0.7571625322645452  0.0000000000000000  0.8407097308706588   T   T   T
  0.7515924725011407  0.5000000000000000  0.1673375220502279   T   T   T
  0.7498434693929529  0.5000000000000000  0.5025652412986298   T   T   T
  0.7515909547357493  0.5000000000000000  0.8378296180723417   T   T   T
  0.2428783820042133  0.2428783820042133  0.0025965730917239   T   T   T
  0.2493152416767015  0.2493152416767015  0.3346924374481113   T   T   T
  0.2493402338602738  0.2493402338602738  0.6705049664939603   T   T   T
  0.2428783820042133  0.7571216179957867  0.0025965730917239   T   T   T
  0.2493152416767015  0.7506847583232985  0.3346924374481113   T   T   T
  0.2493402338602738  0.7506597661397264  0.6705049664939603   T   T   T
  0.7571216179957867  0.2428783820042133  0.0025965730917239   T   T   T
  0.7506847583232985  0.2493152416767015  0.3346924374481113   T   T   T
  0.7506597661397264  0.2493402338602738  0.6705049664939603   T   T   T
  0.7571216179957867  0.7571216179957867  0.0025965730917239   T   T   T
  0.7506847583232985  0.7506847583232985  0.3346924374481113   T   T   T
  0.7506597661397264  0.7506597661397264  0.6705049664939603   T   T   T
 
  0.00000000E+00  0.00000000E+00  0.00000000E+00
  0.00000000E+00  0.00000000E+00  0.00000000E+00
  0.00000000E+00  0.00000000E+00  0.00000000E+00
  0.00000000E+00  0.00000000E+00  0.00000000E+00
  0.00000000E+00  0.00000000E+00  0.00000000E+00
  0.00000000E+00  0.00000000E+00  0.00000000E+00
  0.00000000E+00  0.00000000E+00  0.00000000E+00
  0.00000000E+00  0.00000000E+00  0.00000000E+00
  0.00000000E+00  0.00000000E+00  0.00000000E+00
  0.00000000E+00  0.00000000E+00  0.00000000E+00
  0.00000000E+00  0.00000000E+00  0.00000000E+00
  0.00000000E+00  0.00000000E+00  0.00000000E+00
  0.00000000E+00  0.00000000E+00  0.00000000E+00
  0.00000000E+00  0.00000000E+00  0.00000000E+00
  0.00000000E+00  0.00000000E+00  0.00000000E+00
  0.00000000E+00  0.00000000E+00  0.00000000E+00
  0.00000000E+00  0.00000000E+00  0.00000000E+00
  0.00000000E+00  0.00000000E+00  0.00000000E+00
  0.00000000E+00  0.00000000E+00  0.00000000E+00
  0.00000000E+00  0.00000000E+00  0.00000000E+00
  0.00000000E+00  0.00000000E+00  0.00000000E+00
  0.00000000E+00  0.00000000E+00  0.00000000E+00
  0.00000000E+00  0.00000000E+00  0.00000000E+00
  0.00000000E+00  0.00000000E+00  0.00000000E+00
  0.00000000E+00  0.00000000E+00  0.00000000E+00
  0.00000000E+00  0.00000000E+00  0.00000000E+00
  0.00000000E+00  0.00000000E+00  0.00000000E+00
  0.00000000E+00  0.00000000E+00  0.00000000E+00
  0.00000000E+00  0.00000000E+00  0.00000000E+00
  0.00000000E+00  0.00000000E+00  0.00000000E+00
  0.00000000E+00  0.00000000E+00  0.00000000E+00
  0.00000000E+00  0.00000000E+00  0.00000000E+00
  0.00000000E+00  0.00000000E+00  0.00000000E+00
  0.00000000E+00  0.00000000E+00  0.00000000E+00
  0.00000000E+00  0.00000000E+00  0.00000000E+00
  0.00000000E+00  0.00000000E+00  0.00000000E+00
  0.00000000E+00  0.00000000E+00  0.00000000E+00
  0.00000000E+00  0.00000000E+00  0.00000000E+00
  0.00000000E+00  0.00000000E+00  0.00000000E+00
  0.00000000E+00  0.00000000E+00  0.00000000E+00
  0.00000000E+00  0.00000000E+00  0.00000000E+00
  0.00000000E+00  0.00000000E+00  0.00000000E+00
  0.00000000E+00  0.00000000E+00  0.00000000E+00
  0.00000000E+00  0.00000000E+00  0.00000000E+00
  0.00000000E+00  0.00000000E+00  0.00000000E+00
  0.00000000E+00  0.00000000E+00  0.00000000E+00
  0.00000000E+00  0.00000000E+00  0.00000000E+00
  0.00000000E+00  0.00000000E+00  0.00000000E+00
  0.00000000E+00  0.00000000E+00  0.00000000E+00
  0.00000000E+00  0.00000000E+00  0.00000000E+00
  0.00000000E+00  0.00000000E+00  0.00000000E+00
  0.00000000E+00  0.00000000E+00  0.00000000E+00
  0.00000000E+00  0.00000000E+00  0.00000000E+00
  0.00000000E+00  0.00000000E+00  0.00000000E+00
  0.00000000E+00  0.00000000E+00  0.00000000E+00
  0.00000000E+00  0.00000000E+00  0.00000000E+00
  0.00000000E+00  0.00000000E+00  0.00000000E+00
  0.00000000E+00  0.00000000E+00  0.00000000E+00
  0.00000000E+00  0.00000000E+00  0.00000000E+00
  0.00000000E+00  0.00000000E+00  0.00000000E+00
