global                                  
   1.00000000000000     
     5.1616528640851396    0.0000000000000000    0.0000000000000000
     0.0000000000000000    5.1616528640851396    0.0000000000000000
     0.0000000000000000    0.0000000000000000    8.5842000572146215
   Ca   Bi   Fe   O 
     1     3     4    12
Direct
  0.0000000000000000  0.0000000000000000  0.9942130212525092
  0.5000000000000000  0.5000000000000000  0.4977998182343971
  0.0000000000000000  0.0000000000000000  0.4981498000860835
  0.5000000000000000  0.5000000000000000  0.9880643549391180
  0.5000000000000000  0.0000000000000000  0.2658588463433559
  0.0000000000000000  0.5000000000000000  0.2658588463433559
  0.0000000000000000  0.5000000000000000  0.7777714674204087
  0.5000000000000000  0.0000000000000000  0.7777714674204087
  0.5000000000000000  0.0000000000000000  0.0511902207603876
  0.0000000000000000  0.5000000000000000  0.0511902207603876
  0.2493891960813155  0.2493891960813155  0.3269269041523788
  0.7506108039186844  0.2493891960813155  0.3269269041523788
  0.2493891960813155  0.7506108039186844  0.3269269041523788
  0.7506108039186844  0.7506108039186844  0.3269269041523788
  0.5000000000000000  0.0000000000000000  0.5622777954202085
  0.0000000000000000  0.5000000000000000  0.5622777954202085
  0.2521997148596500  0.2521997148596500  0.8208389217474137
  0.7478002851403501  0.2521997148596500  0.8208389217474137
  0.2521997148596500  0.7478002851403501  0.8208389217474137
  0.7478002851403501  0.7478002851403501  0.8208389217474137
 
  0.00000000E+00  0.00000000E+00  0.00000000E+00
  0.00000000E+00  0.00000000E+00  0.00000000E+00
  0.00000000E+00  0.00000000E+00  0.00000000E+00
  0.00000000E+00  0.00000000E+00  0.00000000E+00
  0.00000000E+00  0.00000000E+00  0.00000000E+00
  0.00000000E+00  0.00000000E+00  0.00000000E+00
  0.00000000E+00  0.00000000E+00  0.00000000E+00
  0.00000000E+00  0.00000000E+00  0.00000000E+00
  0.00000000E+00  0.00000000E+00  0.00000000E+00
  0.00000000E+00  0.00000000E+00  0.00000000E+00
  0.00000000E+00  0.00000000E+00  0.00000000E+00
  0.00000000E+00  0.00000000E+00  0.00000000E+00
  0.00000000E+00  0.00000000E+00  0.00000000E+00
  0.00000000E+00  0.00000000E+00  0.00000000E+00
  0.00000000E+00  0.00000000E+00  0.00000000E+00
  0.00000000E+00  0.00000000E+00  0.00000000E+00
  0.00000000E+00  0.00000000E+00  0.00000000E+00
  0.00000000E+00  0.00000000E+00  0.00000000E+00
  0.00000000E+00  0.00000000E+00  0.00000000E+00
  0.00000000E+00  0.00000000E+00  0.00000000E+00
