global                                  
   1.00000000000000     
     5.1741105802463618    0.0000000000000000    0.0000000000000000
     0.0000000000000000    5.1741105802463618    0.0000000000000000
     0.0000000000000000    0.0000000000000000    8.9268564368677925
   Ca   Bi   Fe   O 
     1     3     4    12
Direct
  0.0000000000000000  0.0000000000000000  0.9886831308932887
  0.5000000000000000  0.5000000000000000  0.4917802587804155
  0.0000000000000000  0.0000000000000000  0.4919528651273663
  0.5000000000000000  0.5000000000000000  0.9822722355853700
  0.5000000000000000  0.0000000000000000  0.2639982062027432
  0.0000000000000000  0.5000000000000000  0.2639982062027432
  0.0000000000000000  0.5000000000000000  0.7740149381503471
  0.5000000000000000  0.0000000000000000  0.7740149381503471
  0.5000000000000000  0.0000000000000000  0.0580461246988344
  0.0000000000000000  0.5000000000000000  0.0580461246988344
  0.2495583991364631  0.2495583991364631  0.3288027116676521
  0.7504416008635370  0.2495583991364631  0.3288027116676521
  0.2495583991364631  0.7504416008635370  0.3288027116676521
  0.7504416008635370  0.7504416008635370  0.3288027116676521
  0.5000000000000000  0.0000000000000000  0.5654692174380800
  0.0000000000000000  0.5000000000000000  0.5654692174380800
  0.2522619287076663  0.2522619287076663  0.8226326619907349
  0.7477380712923337  0.2522619287076663  0.8226326619907349
  0.2522619287076663  0.7477380712923337  0.8226326619907349
  0.7477380712923337  0.7477380712923337  0.8226326619907349
 
  0.00000000E+00  0.00000000E+00  0.00000000E+00
  0.00000000E+00  0.00000000E+00  0.00000000E+00
  0.00000000E+00  0.00000000E+00  0.00000000E+00
  0.00000000E+00  0.00000000E+00  0.00000000E+00
  0.00000000E+00  0.00000000E+00  0.00000000E+00
  0.00000000E+00  0.00000000E+00  0.00000000E+00
  0.00000000E+00  0.00000000E+00  0.00000000E+00
  0.00000000E+00  0.00000000E+00  0.00000000E+00
  0.00000000E+00  0.00000000E+00  0.00000000E+00
  0.00000000E+00  0.00000000E+00  0.00000000E+00
  0.00000000E+00  0.00000000E+00  0.00000000E+00
  0.00000000E+00  0.00000000E+00  0.00000000E+00
  0.00000000E+00  0.00000000E+00  0.00000000E+00
  0.00000000E+00  0.00000000E+00  0.00000000E+00
  0.00000000E+00  0.00000000E+00  0.00000000E+00
  0.00000000E+00  0.00000000E+00  0.00000000E+00
  0.00000000E+00  0.00000000E+00  0.00000000E+00
  0.00000000E+00  0.00000000E+00  0.00000000E+00
  0.00000000E+00  0.00000000E+00  0.00000000E+00
  0.00000000E+00  0.00000000E+00  0.00000000E+00
