global                                  
   1.00000000000000     
     5.1605591417535308    0.0000000000000000    0.0000000000000000
     0.0000000000000000    5.1605591417535308    0.0000000000000000
     0.0000000000000000    0.0000000000000000    8.7017118611181150
   Ca   Bi   Fe   O 
     1     3     4    12
Direct
  0.0000000000000000  0.0000000000000000  0.9920767520729443
  0.5000000000000000  0.5000000000000000  0.4959947359739698
  0.0000000000000000  0.0000000000000000  0.4961795925306769
  0.5000000000000000  0.5000000000000000  0.9863715348661091
  0.5000000000000000  0.0000000000000000  0.2652687969226211
  0.0000000000000000  0.5000000000000000  0.2652687969226211
  0.0000000000000000  0.5000000000000000  0.7764100472056022
  0.5000000000000000  0.0000000000000000  0.7764100472056022
  0.5000000000000000  0.0000000000000000  0.0535473066788190
  0.0000000000000000  0.5000000000000000  0.0535473066788190
  0.2494638093955657  0.2494638093955657  0.3276696080936195
  0.7505361906044344  0.2494638093955657  0.3276696080936195
  0.2494638093955657  0.7505361906044344  0.3276696080936195
  0.7505361906044344  0.7505361906044344  0.3276696080936195
  0.5000000000000000  0.0000000000000000  0.5630976399454296
  0.0000000000000000  0.5000000000000000  0.5630976399454296
  0.2522722082935017  0.2522722082935017  0.8213845821692211
  0.7477277917064984  0.2522722082935017  0.8213845821692211
  0.2522722082935017  0.7477277917064984  0.8213845821692211
  0.7477277917064984  0.7477277917064984  0.8213845821692211
 
  0.00000000E+00  0.00000000E+00  0.00000000E+00
  0.00000000E+00  0.00000000E+00  0.00000000E+00
  0.00000000E+00  0.00000000E+00  0.00000000E+00
  0.00000000E+00  0.00000000E+00  0.00000000E+00
  0.00000000E+00  0.00000000E+00  0.00000000E+00
  0.00000000E+00  0.00000000E+00  0.00000000E+00
  0.00000000E+00  0.00000000E+00  0.00000000E+00
  0.00000000E+00  0.00000000E+00  0.00000000E+00
  0.00000000E+00  0.00000000E+00  0.00000000E+00
  0.00000000E+00  0.00000000E+00  0.00000000E+00
  0.00000000E+00  0.00000000E+00  0.00000000E+00
  0.00000000E+00  0.00000000E+00  0.00000000E+00
  0.00000000E+00  0.00000000E+00  0.00000000E+00
  0.00000000E+00  0.00000000E+00  0.00000000E+00
  0.00000000E+00  0.00000000E+00  0.00000000E+00
  0.00000000E+00  0.00000000E+00  0.00000000E+00
  0.00000000E+00  0.00000000E+00  0.00000000E+00
  0.00000000E+00  0.00000000E+00  0.00000000E+00
  0.00000000E+00  0.00000000E+00  0.00000000E+00
  0.00000000E+00  0.00000000E+00  0.00000000E+00
