global                                  
   1.00000000000000     
     5.1189304205704058    0.0000000000000000    0.0000000000000000
     0.0000000000000000    5.1189304205704058    0.0000000000000000
     0.0000000000000000    0.0000000000000000    7.8960627694667656
   Ca   Bi   Fe   O 
     1     3     4    12
Direct
  0.0000000000000000  0.0000000000000000  0.0069011851412519
  0.5000000000000000  0.5000000000000000  0.5149183236049123
  0.0000000000000000  0.0000000000000000  0.5144119426424218
  0.5000000000000000  0.5000000000000000  0.0004143838327303
  0.5000000000000000  0.0000000000000000  0.2685409878355791
  0.0000000000000000  0.5000000000000000  0.2685409878355791
  0.0000000000000000  0.5000000000000000  0.7873768660853919
  0.5000000000000000  0.0000000000000000  0.7873768660853919
  0.5000000000000000  0.0000000000000000  0.0356811255733523
  0.0000000000000000  0.5000000000000000  0.0356811255733523
  0.2483791862720382  0.2483791862720382  0.3220859421320155
  0.7516208137279619  0.2483791862720382  0.3220859421320155
  0.2483791862720382  0.7516208137279619  0.3220859421320155
  0.7516208137279619  0.7516208137279619  0.3220859421320155
  0.5000000000000000  0.0000000000000000  0.5604891128249346
  0.0000000000000000  0.5000000000000000  0.5604891128249346
  0.2537082605936981  0.2537082605936981  0.8135802924030368
  0.7462917394063019  0.2537082605936981  0.8135802924030368
  0.2537082605936981  0.7462917394063019  0.8135802924030368
  0.7462917394063019  0.7462917394063019  0.8135802924030368
 
  0.00000000E+00  0.00000000E+00  0.00000000E+00
  0.00000000E+00  0.00000000E+00  0.00000000E+00
  0.00000000E+00  0.00000000E+00  0.00000000E+00
  0.00000000E+00  0.00000000E+00  0.00000000E+00
  0.00000000E+00  0.00000000E+00  0.00000000E+00
  0.00000000E+00  0.00000000E+00  0.00000000E+00
  0.00000000E+00  0.00000000E+00  0.00000000E+00
  0.00000000E+00  0.00000000E+00  0.00000000E+00
  0.00000000E+00  0.00000000E+00  0.00000000E+00
  0.00000000E+00  0.00000000E+00  0.00000000E+00
  0.00000000E+00  0.00000000E+00  0.00000000E+00
  0.00000000E+00  0.00000000E+00  0.00000000E+00
  0.00000000E+00  0.00000000E+00  0.00000000E+00
  0.00000000E+00  0.00000000E+00  0.00000000E+00
  0.00000000E+00  0.00000000E+00  0.00000000E+00
  0.00000000E+00  0.00000000E+00  0.00000000E+00
  0.00000000E+00  0.00000000E+00  0.00000000E+00
  0.00000000E+00  0.00000000E+00  0.00000000E+00
  0.00000000E+00  0.00000000E+00  0.00000000E+00
  0.00000000E+00  0.00000000E+00  0.00000000E+00
