global                                  
   1.00000000000000     
     5.1544262502487488    0.0000000000000000    0.0000000000000000
     0.0000000000000000    5.1544262502487488    0.0000000000000000
     0.0000000000000000    0.0000000000000000    8.2114847739341315
   Ca   Bi   Fe   O 
     1     3     4    12
Direct
  0.0000000000000000  0.0000000000000000 -0.0016283393091500
  0.5000000000000000  0.5000000000000000  0.5060624439216558
  0.0000000000000000  0.0000000000000000  0.5065071828692614
  0.5000000000000000  0.5000000000000000  0.9933129154621196
  0.5000000000000000  0.0000000000000000  0.2644136882198141
  0.0000000000000000  0.5000000000000000  0.2644136882198141
  0.0000000000000000  0.5000000000000000  0.7847315722690528
  0.5000000000000000  0.0000000000000000  0.7847315722690528
  0.5000000000000000  0.0000000000000000  0.0392406320947125
  0.0000000000000000  0.5000000000000000  0.0392406320947125
  0.2487493522750616  0.2487493522750616  0.3251865483944013
  0.7512506477249385  0.2487493522750616  0.3251865483944013
  0.2487493522750616  0.7512506477249385  0.3251865483944013
  0.7512506477249385  0.7512506477249385  0.3251865483944013
  0.5000000000000000  0.0000000000000000  0.5656561059357265
  0.0000000000000000  0.5000000000000000  0.5656561059357265
  0.2532283285265186  0.2532283285265186  0.8176006411099737
  0.7467716714734817  0.2532283285265186  0.8176006411099737
  0.2532283285265186  0.7467716714734817  0.8176006411099737
  0.7467716714734817  0.7467716714734817  0.8176006411099737
 
  0.00000000E+00  0.00000000E+00  0.00000000E+00
  0.00000000E+00  0.00000000E+00  0.00000000E+00
  0.00000000E+00  0.00000000E+00  0.00000000E+00
  0.00000000E+00  0.00000000E+00  0.00000000E+00
  0.00000000E+00  0.00000000E+00  0.00000000E+00
  0.00000000E+00  0.00000000E+00  0.00000000E+00
  0.00000000E+00  0.00000000E+00  0.00000000E+00
  0.00000000E+00  0.00000000E+00  0.00000000E+00
  0.00000000E+00  0.00000000E+00  0.00000000E+00
  0.00000000E+00  0.00000000E+00  0.00000000E+00
  0.00000000E+00  0.00000000E+00  0.00000000E+00
  0.00000000E+00  0.00000000E+00  0.00000000E+00
  0.00000000E+00  0.00000000E+00  0.00000000E+00
  0.00000000E+00  0.00000000E+00  0.00000000E+00
  0.00000000E+00  0.00000000E+00  0.00000000E+00
  0.00000000E+00  0.00000000E+00  0.00000000E+00
  0.00000000E+00  0.00000000E+00  0.00000000E+00
  0.00000000E+00  0.00000000E+00  0.00000000E+00
  0.00000000E+00  0.00000000E+00  0.00000000E+00
  0.00000000E+00  0.00000000E+00  0.00000000E+00
