global                                  
   1.00000000000000     
     5.1457230690781941    0.0000000000000000    0.0000000000000000
     0.0000000000000000    5.1457230690781941    0.0000000000000000
     0.0000000000000000    0.0000000000000000    8.1200857440301863
   Ca   Bi   Fe   O 
     1     3     4    12
Direct
  0.0000000000000000  0.0000000000000000  0.0005666140786184
  0.5000000000000000  0.5000000000000000  0.5083379346456361
  0.0000000000000000  0.0000000000000000  0.5086627113461228
  0.5000000000000000  0.5000000000000000  0.9951345774918881
  0.5000000000000000  0.0000000000000000  0.2653908237722144
  0.0000000000000000  0.5000000000000000  0.2653908237722144
  0.0000000000000000  0.5000000000000000  0.7855676834419438
  0.5000000000000000  0.0000000000000000  0.7855676834419438
  0.5000000000000000  0.0000000000000000  0.0378657728298173
  0.0000000000000000  0.5000000000000000  0.0378657728298173
  0.2486606793460296  0.2486606793460296  0.3244247453306382
  0.7513393206539704  0.2486606793460296  0.3244247453306382
  0.2486606793460296  0.7513393206539704  0.3244247453306382
  0.7513393206539704  0.7513393206539704  0.3244247453306382
  0.5000000000000000  0.0000000000000000  0.5644304608106878
  0.0000000000000000  0.5000000000000000  0.5644304608106878
  0.2532930681552719  0.2532930681552719  0.8166441643514631
  0.7467069318447280  0.2532930681552719  0.8166441643514631
  0.2532930681552719  0.7467069318447280  0.8166441643514631
  0.7467069318447280  0.7467069318447280  0.8166441643514631
 
  0.00000000E+00  0.00000000E+00  0.00000000E+00
  0.00000000E+00  0.00000000E+00  0.00000000E+00
  0.00000000E+00  0.00000000E+00  0.00000000E+00
  0.00000000E+00  0.00000000E+00  0.00000000E+00
  0.00000000E+00  0.00000000E+00  0.00000000E+00
  0.00000000E+00  0.00000000E+00  0.00000000E+00
  0.00000000E+00  0.00000000E+00  0.00000000E+00
  0.00000000E+00  0.00000000E+00  0.00000000E+00
  0.00000000E+00  0.00000000E+00  0.00000000E+00
  0.00000000E+00  0.00000000E+00  0.00000000E+00
  0.00000000E+00  0.00000000E+00  0.00000000E+00
  0.00000000E+00  0.00000000E+00  0.00000000E+00
  0.00000000E+00  0.00000000E+00  0.00000000E+00
  0.00000000E+00  0.00000000E+00  0.00000000E+00
  0.00000000E+00  0.00000000E+00  0.00000000E+00
  0.00000000E+00  0.00000000E+00  0.00000000E+00
  0.00000000E+00  0.00000000E+00  0.00000000E+00
  0.00000000E+00  0.00000000E+00  0.00000000E+00
  0.00000000E+00  0.00000000E+00  0.00000000E+00
  0.00000000E+00  0.00000000E+00  0.00000000E+00
