global                                  
   1.00000000000000     
     5.2324985430764466    0.0000000000000000    0.0000000000000000
     0.0000000000000000    5.2324985430764466    0.0000000000000000
     0.0000000000000000    0.0000000000000000    8.7265104257975015
   Ca   Bi   Fe   O 
     1     3     4    12
Direct
  0.0000000000000000  0.0000000000000000 -0.0110114891511376
  0.5000000000000000  0.5000000000000000  0.4927353784094008
  0.0000000000000000  0.0000000000000000  0.4930541913490662
  0.5000000000000000  0.5000000000000000 -0.0177378793167991
  0.5000000000000000  0.0000000000000000  0.2655730712358028
  0.0000000000000000  0.5000000000000000  0.2655730712358028
  0.0000000000000000  0.5000000000000000  0.7762377977500782
  0.5000000000000000  0.0000000000000000  0.7762377977500782
  0.5000000000000000  0.0000000000000000  0.0554682737425793
  0.0000000000000000  0.5000000000000000  0.0554682737425793
  0.2494124085854553  0.2494124085854553  0.3284319402546750
  0.7505875914145447  0.2494124085854553  0.3284319402546750
  0.2494124085854553  0.7505875914145447  0.3284319402546750
  0.7505875914145447  0.7505875914145447  0.3284319402546750
  0.5000000000000000  0.0000000000000000  0.5646386578399266
  0.0000000000000000  0.5000000000000000  0.5646386578399266
  0.2526530033110139  0.2526530033110139  0.8222208486385005
  0.7473469966889864  0.2526530033110139  0.8222208486385005
  0.2526530033110139  0.7473469966889864  0.8222208486385005
  0.7473469966889864  0.7473469966889864  0.8222208486385005
 
  0.00000000E+00  0.00000000E+00  0.00000000E+00
  0.00000000E+00  0.00000000E+00  0.00000000E+00
  0.00000000E+00  0.00000000E+00  0.00000000E+00
  0.00000000E+00  0.00000000E+00  0.00000000E+00
  0.00000000E+00  0.00000000E+00  0.00000000E+00
  0.00000000E+00  0.00000000E+00  0.00000000E+00
  0.00000000E+00  0.00000000E+00  0.00000000E+00
  0.00000000E+00  0.00000000E+00  0.00000000E+00
  0.00000000E+00  0.00000000E+00  0.00000000E+00
  0.00000000E+00  0.00000000E+00  0.00000000E+00
  0.00000000E+00  0.00000000E+00  0.00000000E+00
  0.00000000E+00  0.00000000E+00  0.00000000E+00
  0.00000000E+00  0.00000000E+00  0.00000000E+00
  0.00000000E+00  0.00000000E+00  0.00000000E+00
  0.00000000E+00  0.00000000E+00  0.00000000E+00
  0.00000000E+00  0.00000000E+00  0.00000000E+00
  0.00000000E+00  0.00000000E+00  0.00000000E+00
  0.00000000E+00  0.00000000E+00  0.00000000E+00
  0.00000000E+00  0.00000000E+00  0.00000000E+00
  0.00000000E+00  0.00000000E+00  0.00000000E+00
