global                                  
   1.00000000000000     
     5.1049302093409690    0.0000000000000000    0.0000000000000000
     0.0000000000000000    5.1049302093409690    0.0000000000000000
     0.0000000000000000    0.0000000000000000    7.7452618971090077
   Ca   Bi   Fe   O 
     1     3     4    12
Direct
  0.0000000000000000  0.0000000000000000  0.0119025358726671
  0.5000000000000000  0.5000000000000000  0.5205262011327765
  0.0000000000000000  0.0000000000000000  0.5191739327316667
  0.5000000000000000  0.5000000000000000  0.0033032842437363
  0.5000000000000000  0.0000000000000000  0.2718170906729181
  0.0000000000000000  0.5000000000000000  0.2718170906729181
  0.0000000000000000  0.5000000000000000  0.7890370929163919
  0.5000000000000000  0.0000000000000000  0.7890370929163919
  0.5000000000000000  0.0000000000000000  0.0353032398308999
  0.0000000000000000  0.5000000000000000  0.0353032398308999
  0.2481075275488050  0.2481075275488050  0.3200948312045472
  0.7518924724511949  0.2481075275488050  0.3200948312045472
  0.2481075275488050  0.7518924724511949  0.3200948312045472
  0.7518924724511949  0.7518924724511949  0.3200948312045472
  0.5000000000000000  0.0000000000000000  0.5575373548951743
  0.0000000000000000  0.5000000000000000  0.5575373548951743
  0.2540928731187809  0.2540928731187809  0.8102030306425578
  0.7459071268812190  0.2540928731187809  0.8102030306425578
  0.2540928731187809  0.7459071268812190  0.8102030306425578
  0.7459071268812190  0.7459071268812190  0.8102030306425578
 
  0.00000000E+00  0.00000000E+00  0.00000000E+00
  0.00000000E+00  0.00000000E+00  0.00000000E+00
  0.00000000E+00  0.00000000E+00  0.00000000E+00
  0.00000000E+00  0.00000000E+00  0.00000000E+00
  0.00000000E+00  0.00000000E+00  0.00000000E+00
  0.00000000E+00  0.00000000E+00  0.00000000E+00
  0.00000000E+00  0.00000000E+00  0.00000000E+00
  0.00000000E+00  0.00000000E+00  0.00000000E+00
  0.00000000E+00  0.00000000E+00  0.00000000E+00
  0.00000000E+00  0.00000000E+00  0.00000000E+00
  0.00000000E+00  0.00000000E+00  0.00000000E+00
  0.00000000E+00  0.00000000E+00  0.00000000E+00
  0.00000000E+00  0.00000000E+00  0.00000000E+00
  0.00000000E+00  0.00000000E+00  0.00000000E+00
  0.00000000E+00  0.00000000E+00  0.00000000E+00
  0.00000000E+00  0.00000000E+00  0.00000000E+00
  0.00000000E+00  0.00000000E+00  0.00000000E+00
  0.00000000E+00  0.00000000E+00  0.00000000E+00
  0.00000000E+00  0.00000000E+00  0.00000000E+00
  0.00000000E+00  0.00000000E+00  0.00000000E+00
