global                                  
   1.00000000000000     
     5.1613535316481070    0.0000000000000000    0.0000000000000000
     0.0000000000000000    5.1613535316481070    0.0000000000000000
     0.0000000000000000    0.0000000000000000    8.5680569865119907
   Ca   Bi   Fe   O 
     1     3     4    12
Direct
  0.0000000000000000  0.0000000000000000  0.9945001086760221
  0.5000000000000000  0.5000000000000000  0.4980615517167582
  0.0000000000000000  0.0000000000000000  0.4984419348895996
  0.5000000000000000  0.5000000000000000  0.9883500720623738
  0.5000000000000000  0.0000000000000000  0.2659327100203723
  0.0000000000000000  0.5000000000000000  0.2659327100203723
  0.0000000000000000  0.5000000000000000  0.7779498577605173
  0.5000000000000000  0.0000000000000000  0.7779498577605173
  0.5000000000000000  0.0000000000000000  0.0508238426428217
  0.0000000000000000  0.5000000000000000  0.0508238426428217
  0.2493748122569336  0.2493748122569336  0.3268414049815218
  0.7506251877430663  0.2493748122569336  0.3268414049815218
  0.2493748122569336  0.7506251877430663  0.3268414049815218
  0.7506251877430663  0.7506251877430663  0.3268414049815218
  0.5000000000000000  0.0000000000000000  0.5621715248958380
  0.0000000000000000  0.5000000000000000  0.5621715248958380
  0.2522550288825800  0.2522550288825800  0.8207529500225149
  0.7477449711174202  0.2522550288825800  0.8207529500225149
  0.2522550288825800  0.7477449711174202  0.8207529500225149
  0.7477449711174202  0.7477449711174202  0.8207529500225149
 
  0.00000000E+00  0.00000000E+00  0.00000000E+00
  0.00000000E+00  0.00000000E+00  0.00000000E+00
  0.00000000E+00  0.00000000E+00  0.00000000E+00
  0.00000000E+00  0.00000000E+00  0.00000000E+00
  0.00000000E+00  0.00000000E+00  0.00000000E+00
  0.00000000E+00  0.00000000E+00  0.00000000E+00
  0.00000000E+00  0.00000000E+00  0.00000000E+00
  0.00000000E+00  0.00000000E+00  0.00000000E+00
  0.00000000E+00  0.00000000E+00  0.00000000E+00
  0.00000000E+00  0.00000000E+00  0.00000000E+00
  0.00000000E+00  0.00000000E+00  0.00000000E+00
  0.00000000E+00  0.00000000E+00  0.00000000E+00
  0.00000000E+00  0.00000000E+00  0.00000000E+00
  0.00000000E+00  0.00000000E+00  0.00000000E+00
  0.00000000E+00  0.00000000E+00  0.00000000E+00
  0.00000000E+00  0.00000000E+00  0.00000000E+00
  0.00000000E+00  0.00000000E+00  0.00000000E+00
  0.00000000E+00  0.00000000E+00  0.00000000E+00
  0.00000000E+00  0.00000000E+00  0.00000000E+00
  0.00000000E+00  0.00000000E+00  0.00000000E+00
