global                                  
   1.00000000000000     
     5.1484047690293151    0.0000000000000000    0.0000000000000000
     0.0000000000000000    5.1484047690293151    0.0000000000000000
     0.0000000000000000    0.0000000000000000    8.1694263577021591
   Ca   Bi   Fe   O 
     1     3     4    12
Direct
  0.0000000000000000  0.0000000000000000 -0.0007951784943431
  0.5000000000000000  0.5000000000000000  0.5071800424159958
  0.0000000000000000  0.0000000000000000  0.5075063995887720
  0.5000000000000000  0.5000000000000000  0.9942445160469394
  0.5000000000000000  0.0000000000000000  0.2648746274968213
  0.0000000000000000  0.5000000000000000  0.2648746274968213
  0.0000000000000000  0.5000000000000000  0.7851223043016682
  0.5000000000000000  0.0000000000000000  0.7851223043016682
  0.5000000000000000  0.0000000000000000  0.0385761144026795
  0.0000000000000000  0.5000000000000000  0.0385761144026795
  0.2486640449709197  0.2486640449709197  0.3248045200556922
  0.7513359550290802  0.2486640449709197  0.3248045200556922
  0.2486640449709197  0.7513359550290802  0.3248045200556922
  0.7513359550290802  0.7513359550290802  0.3248045200556922
  0.5000000000000000  0.0000000000000000  0.5651065309109629
  0.0000000000000000  0.5000000000000000  0.5651065309109629
  0.2532221985893653  0.2532221985893653  0.8171934859989004
  0.7467778014106345  0.2532221985893653  0.8171934859989004
  0.2532221985893653  0.7467778014106345  0.8171934859989004
  0.7467778014106345  0.7467778014106345  0.8171934859989004
 
  0.00000000E+00  0.00000000E+00  0.00000000E+00
  0.00000000E+00  0.00000000E+00  0.00000000E+00
  0.00000000E+00  0.00000000E+00  0.00000000E+00
  0.00000000E+00  0.00000000E+00  0.00000000E+00
  0.00000000E+00  0.00000000E+00  0.00000000E+00
  0.00000000E+00  0.00000000E+00  0.00000000E+00
  0.00000000E+00  0.00000000E+00  0.00000000E+00
  0.00000000E+00  0.00000000E+00  0.00000000E+00
  0.00000000E+00  0.00000000E+00  0.00000000E+00
  0.00000000E+00  0.00000000E+00  0.00000000E+00
  0.00000000E+00  0.00000000E+00  0.00000000E+00
  0.00000000E+00  0.00000000E+00  0.00000000E+00
  0.00000000E+00  0.00000000E+00  0.00000000E+00
  0.00000000E+00  0.00000000E+00  0.00000000E+00
  0.00000000E+00  0.00000000E+00  0.00000000E+00
  0.00000000E+00  0.00000000E+00  0.00000000E+00
  0.00000000E+00  0.00000000E+00  0.00000000E+00
  0.00000000E+00  0.00000000E+00  0.00000000E+00
  0.00000000E+00  0.00000000E+00  0.00000000E+00
  0.00000000E+00  0.00000000E+00  0.00000000E+00
