global                                  
   1.00000000000000     
     5.1592237765995890    0.0000000000000000    0.0000000000000000
     0.0000000000000000    5.1592237765995890    0.0000000000000000
     0.0000000000000000    0.0000000000000000    8.5582070191953239
   Ca   Bi   Fe   O 
     1     3     4    12
Direct
  0.0000000000000000  0.0000000000000000  0.9946025119786627
  0.5000000000000000  0.5000000000000000  0.4983327778684782
  0.0000000000000000  0.0000000000000000  0.4986425166683636
  0.5000000000000000  0.5000000000000000  0.9886654720871606
  0.5000000000000000  0.0000000000000000  0.2658961837269961
  0.0000000000000000  0.5000000000000000  0.2658961837269961
  0.0000000000000000  0.5000000000000000  0.7780273173064544
  0.5000000000000000  0.0000000000000000  0.7780273173064544
  0.5000000000000000  0.0000000000000000  0.0505078669445283
  0.0000000000000000  0.5000000000000000  0.0505078669445283
  0.2493623173773902  0.2493623173773902  0.3268134106752744
  0.7506376826226099  0.2493623173773902  0.3268134106752744
  0.2493623173773902  0.7506376826226099  0.3268134106752744
  0.7506376826226099  0.7506376826226099  0.3268134106752744
  0.5000000000000000  0.0000000000000000  0.5621281583616845
  0.0000000000000000  0.5000000000000000  0.5621281583616845
  0.2522686031144930  0.2522686031144930  0.8207177460042292
  0.7477313968855072  0.2522686031144930  0.8207177460042292
  0.2522686031144930  0.7477313968855072  0.8207177460042292
  0.7477313968855072  0.7477313968855072  0.8207177460042292
 
  0.00000000E+00  0.00000000E+00  0.00000000E+00
  0.00000000E+00  0.00000000E+00  0.00000000E+00
  0.00000000E+00  0.00000000E+00  0.00000000E+00
  0.00000000E+00  0.00000000E+00  0.00000000E+00
  0.00000000E+00  0.00000000E+00  0.00000000E+00
  0.00000000E+00  0.00000000E+00  0.00000000E+00
  0.00000000E+00  0.00000000E+00  0.00000000E+00
  0.00000000E+00  0.00000000E+00  0.00000000E+00
  0.00000000E+00  0.00000000E+00  0.00000000E+00
  0.00000000E+00  0.00000000E+00  0.00000000E+00
  0.00000000E+00  0.00000000E+00  0.00000000E+00
  0.00000000E+00  0.00000000E+00  0.00000000E+00
  0.00000000E+00  0.00000000E+00  0.00000000E+00
  0.00000000E+00  0.00000000E+00  0.00000000E+00
  0.00000000E+00  0.00000000E+00  0.00000000E+00
  0.00000000E+00  0.00000000E+00  0.00000000E+00
  0.00000000E+00  0.00000000E+00  0.00000000E+00
  0.00000000E+00  0.00000000E+00  0.00000000E+00
  0.00000000E+00  0.00000000E+00  0.00000000E+00
  0.00000000E+00  0.00000000E+00  0.00000000E+00
