global                                  
   1.00000000000000     
     5.1643710440957680    0.0000000000000000    0.0000000000000000
     0.0000000000000000    5.1643710440957680    0.0000000000000000
     0.0000000000000000    0.0000000000000000    8.7684416936484304
   Ca   Bi   Fe   O 
     1     3     4    12
Direct
  0.0000000000000000  0.0000000000000000  0.9912636827986887
  0.5000000000000000  0.5000000000000000  0.4946921073195787
  0.0000000000000000  0.0000000000000000  0.4948592910762467
  0.5000000000000000  0.5000000000000000  0.9850964501014952
  0.5000000000000000  0.0000000000000000  0.2649034237277726
  0.0000000000000000  0.5000000000000000  0.2649034237277726
  0.0000000000000000  0.5000000000000000  0.7756798659061577
  0.5000000000000000  0.0000000000000000  0.7756798659061577
  0.5000000000000000  0.0000000000000000  0.0549301191549919
  0.0000000000000000  0.5000000000000000  0.0549301191549919
  0.2494926240989909  0.2494926240989909  0.3279630268365641
  0.7505073759010091  0.2494926240989909  0.3279630268365641
  0.2494926240989909  0.7505073759010091  0.3279630268365641
  0.7505073759010091  0.7505073759010091  0.3279630268365641
  0.5000000000000000  0.0000000000000000  0.5637228798300423
  0.0000000000000000  0.5000000000000000  0.5637228798300423
  0.2522403614900900  0.2522403614900900  0.8218126855299529
  0.7477596385099100  0.2522403614900900  0.8218126855299529
  0.2522403614900900  0.7477596385099100  0.8218126855299529
  0.7477596385099100  0.7477596385099100  0.8218126855299529
 
  0.00000000E+00  0.00000000E+00  0.00000000E+00
  0.00000000E+00  0.00000000E+00  0.00000000E+00
  0.00000000E+00  0.00000000E+00  0.00000000E+00
  0.00000000E+00  0.00000000E+00  0.00000000E+00
  0.00000000E+00  0.00000000E+00  0.00000000E+00
  0.00000000E+00  0.00000000E+00  0.00000000E+00
  0.00000000E+00  0.00000000E+00  0.00000000E+00
  0.00000000E+00  0.00000000E+00  0.00000000E+00
  0.00000000E+00  0.00000000E+00  0.00000000E+00
  0.00000000E+00  0.00000000E+00  0.00000000E+00
  0.00000000E+00  0.00000000E+00  0.00000000E+00
  0.00000000E+00  0.00000000E+00  0.00000000E+00
  0.00000000E+00  0.00000000E+00  0.00000000E+00
  0.00000000E+00  0.00000000E+00  0.00000000E+00
  0.00000000E+00  0.00000000E+00  0.00000000E+00
  0.00000000E+00  0.00000000E+00  0.00000000E+00
  0.00000000E+00  0.00000000E+00  0.00000000E+00
  0.00000000E+00  0.00000000E+00  0.00000000E+00
  0.00000000E+00  0.00000000E+00  0.00000000E+00
  0.00000000E+00  0.00000000E+00  0.00000000E+00
