global                                  
   1.00000000000000     
     5.1597837321930262    0.0000000000000000    0.0000000000000000
     0.0000000000000000    5.1597837321930262    0.0000000000000000
     0.0000000000000000    0.0000000000000000    8.5621414827854796
   Ca   Bi   Fe   O 
     1     3     4    12
Direct
  0.0000000000000000  0.0000000000000000  0.9945471026561375
  0.5000000000000000  0.5000000000000000  0.4981964358112820
  0.0000000000000000  0.0000000000000000  0.4985737820560965
  0.5000000000000000  0.5000000000000000  0.9885303171937978
  0.5000000000000000  0.0000000000000000  0.2658888534116274
  0.0000000000000000  0.5000000000000000  0.2658888534116274
  0.0000000000000000  0.5000000000000000  0.7780012867652694
  0.5000000000000000  0.0000000000000000  0.7780012867652694
  0.5000000000000000  0.0000000000000000  0.0507038208485416
  0.0000000000000000  0.5000000000000000  0.0507038208485416
  0.2493684427924134  0.2493684427924134  0.3268390431454601
  0.7506315572075866  0.2493684427924134  0.3268390431454601
  0.2493684427924134  0.7506315572075866  0.3268390431454601
  0.7506315572075866  0.7506315572075866  0.3268390431454601
  0.5000000000000000  0.0000000000000000  0.5621140671767333
  0.0000000000000000  0.5000000000000000  0.5621140671767333
  0.2522449123576695  0.2522449123576695  0.8207167728241256
  0.7477550876423305  0.2522449123576695  0.8207167728241256
  0.2522449123576695  0.7477550876423305  0.8207167728241256
  0.7477550876423305  0.7477550876423305  0.8207167728241256
 
  0.00000000E+00  0.00000000E+00  0.00000000E+00
  0.00000000E+00  0.00000000E+00  0.00000000E+00
  0.00000000E+00  0.00000000E+00  0.00000000E+00
  0.00000000E+00  0.00000000E+00  0.00000000E+00
  0.00000000E+00  0.00000000E+00  0.00000000E+00
  0.00000000E+00  0.00000000E+00  0.00000000E+00
  0.00000000E+00  0.00000000E+00  0.00000000E+00
  0.00000000E+00  0.00000000E+00  0.00000000E+00
  0.00000000E+00  0.00000000E+00  0.00000000E+00
  0.00000000E+00  0.00000000E+00  0.00000000E+00
  0.00000000E+00  0.00000000E+00  0.00000000E+00
  0.00000000E+00  0.00000000E+00  0.00000000E+00
  0.00000000E+00  0.00000000E+00  0.00000000E+00
  0.00000000E+00  0.00000000E+00  0.00000000E+00
  0.00000000E+00  0.00000000E+00  0.00000000E+00
  0.00000000E+00  0.00000000E+00  0.00000000E+00
  0.00000000E+00  0.00000000E+00  0.00000000E+00
  0.00000000E+00  0.00000000E+00  0.00000000E+00
  0.00000000E+00  0.00000000E+00  0.00000000E+00
  0.00000000E+00  0.00000000E+00  0.00000000E+00
