global                                  
   1.00000000000000     
     5.1497675567188592    0.0000000000000000    0.0000000000000000
     0.0000000000000000    5.1497675567188592    0.0000000000000000
     0.0000000000000000    0.0000000000000000    8.3904075700869072
   Ca   Bi   Fe   O 
     1     3     4    12
Direct
  0.0000000000000000  0.0000000000000000  0.9976212987081432
  0.5000000000000000  0.5000000000000000  0.5017081853070219
  0.0000000000000000  0.0000000000000000  0.5020662681704028
  0.5000000000000000  0.5000000000000000  0.9918934022924187
  0.5000000000000000  0.0000000000000000  0.2662211312032577
  0.0000000000000000  0.5000000000000000  0.2662211312032577
  0.0000000000000000  0.5000000000000000  0.7801212053350522
  0.5000000000000000  0.0000000000000000  0.7801212053350522
  0.5000000000000000  0.0000000000000000  0.0462669765463488
  0.0000000000000000  0.5000000000000000  0.0462669765463488
  0.2492027573066866  0.2492027573066866  0.3258022454890166
  0.7507972426933133  0.2492027573066866  0.3258022454890166
  0.2492027573066866  0.7507972426933133  0.3258022454890166
  0.7507972426933133  0.7507972426933133  0.3258022454890166
  0.5000000000000000  0.0000000000000000  0.5615673821830872
  0.0000000000000000  0.5000000000000000  0.5615673821830872
  0.2523410284451495  0.2523410284451495  0.8196588577576138
  0.7476589715548506  0.2523410284451495  0.8196588577576138
  0.2523410284451495  0.7476589715548506  0.8196588577576138
  0.7476589715548506  0.7476589715548506  0.8196588577576138
 
  0.00000000E+00  0.00000000E+00  0.00000000E+00
  0.00000000E+00  0.00000000E+00  0.00000000E+00
  0.00000000E+00  0.00000000E+00  0.00000000E+00
  0.00000000E+00  0.00000000E+00  0.00000000E+00
  0.00000000E+00  0.00000000E+00  0.00000000E+00
  0.00000000E+00  0.00000000E+00  0.00000000E+00
  0.00000000E+00  0.00000000E+00  0.00000000E+00
  0.00000000E+00  0.00000000E+00  0.00000000E+00
  0.00000000E+00  0.00000000E+00  0.00000000E+00
  0.00000000E+00  0.00000000E+00  0.00000000E+00
  0.00000000E+00  0.00000000E+00  0.00000000E+00
  0.00000000E+00  0.00000000E+00  0.00000000E+00
  0.00000000E+00  0.00000000E+00  0.00000000E+00
  0.00000000E+00  0.00000000E+00  0.00000000E+00
  0.00000000E+00  0.00000000E+00  0.00000000E+00
  0.00000000E+00  0.00000000E+00  0.00000000E+00
  0.00000000E+00  0.00000000E+00  0.00000000E+00
  0.00000000E+00  0.00000000E+00  0.00000000E+00
  0.00000000E+00  0.00000000E+00  0.00000000E+00
  0.00000000E+00  0.00000000E+00  0.00000000E+00
