global                                  
   1.00000000000000     
     5.1269756800630724    0.0000000000000000    0.0000000000000000
     0.0000000000000000    5.1269756800630724    0.0000000000000000
     0.0000000000000000    0.0000000000000000    7.9706848896333238
   Ca   Bi   Fe   O 
     1     3     4    12
Direct
  0.0000000000000000  0.0000000000000000  0.0046213979359760
  0.5000000000000000  0.5000000000000000  0.5125705800100124
  0.0000000000000000  0.0000000000000000  0.5124238262097111
  0.5000000000000000  0.5000000000000000  0.9986809552972179
  0.5000000000000000  0.0000000000000000  0.2673287727007711
  0.0000000000000000  0.5000000000000000  0.2673287727007711
  0.0000000000000000  0.5000000000000000  0.7867274275827185
  0.5000000000000000  0.0000000000000000  0.7867274275827185
  0.5000000000000000  0.0000000000000000  0.0362481739674087
  0.0000000000000000  0.5000000000000000  0.0362481739674087
  0.2484958420831456  0.2484958420831456  0.3229326262063931
  0.7515041579168543  0.2484958420831456  0.3229326262063931
  0.2484958420831456  0.7515041579168543  0.3229326262063931
  0.7515041579168543  0.7515041579168543  0.3229326262063931
  0.5000000000000000  0.0000000000000000  0.5618735790093305
  0.0000000000000000  0.5000000000000000  0.5618735790093305
  0.2535175891555012  0.2535175891555012  0.8147759468002735
  0.7464824108444987  0.2535175891555012  0.8147759468002735
  0.2535175891555012  0.7464824108444987  0.8147759468002735
  0.7464824108444987  0.7464824108444987  0.8147759468002735
 
  0.00000000E+00  0.00000000E+00  0.00000000E+00
  0.00000000E+00  0.00000000E+00  0.00000000E+00
  0.00000000E+00  0.00000000E+00  0.00000000E+00
  0.00000000E+00  0.00000000E+00  0.00000000E+00
  0.00000000E+00  0.00000000E+00  0.00000000E+00
  0.00000000E+00  0.00000000E+00  0.00000000E+00
  0.00000000E+00  0.00000000E+00  0.00000000E+00
  0.00000000E+00  0.00000000E+00  0.00000000E+00
  0.00000000E+00  0.00000000E+00  0.00000000E+00
  0.00000000E+00  0.00000000E+00  0.00000000E+00
  0.00000000E+00  0.00000000E+00  0.00000000E+00
  0.00000000E+00  0.00000000E+00  0.00000000E+00
  0.00000000E+00  0.00000000E+00  0.00000000E+00
  0.00000000E+00  0.00000000E+00  0.00000000E+00
  0.00000000E+00  0.00000000E+00  0.00000000E+00
  0.00000000E+00  0.00000000E+00  0.00000000E+00
  0.00000000E+00  0.00000000E+00  0.00000000E+00
  0.00000000E+00  0.00000000E+00  0.00000000E+00
  0.00000000E+00  0.00000000E+00  0.00000000E+00
  0.00000000E+00  0.00000000E+00  0.00000000E+00
