global                                  
   1.00000000000000     
     5.1540301998631497    0.0000000000000000    0.0000000000000000
     0.0000000000000000    5.1540301998631497    0.0000000000000000
     0.0000000000000000    0.0000000000000000    8.4704184232827391
   Ca   Bi   Fe   O 
     1     3     4    12
Direct
  0.0000000000000000  0.0000000000000000  0.9962894731107709
  0.5000000000000000  0.5000000000000000  0.5000659979361938
  0.0000000000000000  0.0000000000000000  0.5004682548691832
  0.5000000000000000  0.5000000000000000  0.9904428353076449
  0.5000000000000000  0.0000000000000000  0.2662113965829495
  0.0000000000000000  0.5000000000000000  0.2662113965829495
  0.0000000000000000  0.5000000000000000  0.7790488637096039
  0.5000000000000000  0.0000000000000000  0.7790488637096039
  0.5000000000000000  0.0000000000000000  0.0484080260311577
  0.0000000000000000  0.5000000000000000  0.0484080260311577
  0.2492909711416290  0.2492909711416290  0.3262478104764880
  0.7507090288583712  0.2492909711416290  0.3262478104764880
  0.2492909711416290  0.7507090288583712  0.3262478104764880
  0.7507090288583712  0.7507090288583712  0.3262478104764880
  0.5000000000000000  0.0000000000000000  0.5615502086378873
  0.0000000000000000  0.5000000000000000  0.5615502086378873
  0.2522801201607001  0.2522801201607001  0.8201980412367641
  0.7477198798393003  0.2522801201607001  0.8201980412367641
  0.2522801201607001  0.7477198798393003  0.8201980412367641
  0.7477198798393003  0.7477198798393003  0.8201980412367641
 
  0.00000000E+00  0.00000000E+00  0.00000000E+00
  0.00000000E+00  0.00000000E+00  0.00000000E+00
  0.00000000E+00  0.00000000E+00  0.00000000E+00
  0.00000000E+00  0.00000000E+00  0.00000000E+00
  0.00000000E+00  0.00000000E+00  0.00000000E+00
  0.00000000E+00  0.00000000E+00  0.00000000E+00
  0.00000000E+00  0.00000000E+00  0.00000000E+00
  0.00000000E+00  0.00000000E+00  0.00000000E+00
  0.00000000E+00  0.00000000E+00  0.00000000E+00
  0.00000000E+00  0.00000000E+00  0.00000000E+00
  0.00000000E+00  0.00000000E+00  0.00000000E+00
  0.00000000E+00  0.00000000E+00  0.00000000E+00
  0.00000000E+00  0.00000000E+00  0.00000000E+00
  0.00000000E+00  0.00000000E+00  0.00000000E+00
  0.00000000E+00  0.00000000E+00  0.00000000E+00
  0.00000000E+00  0.00000000E+00  0.00000000E+00
  0.00000000E+00  0.00000000E+00  0.00000000E+00
  0.00000000E+00  0.00000000E+00  0.00000000E+00
  0.00000000E+00  0.00000000E+00  0.00000000E+00
  0.00000000E+00  0.00000000E+00  0.00000000E+00
