global                                  
   1.00000000000000     
     5.1541977183519059    0.0000000000000000    0.0000000000000000
     0.0000000000000000    5.1541977183519059    0.0000000000000000
     0.0000000000000000    0.0000000000000000    8.2059205070847892
   Ca   Bi   Fe   O 
     1     3     4    12
Direct
  0.0000000000000000  0.0000000000000000  0.9983262346729028
  0.5000000000000000  0.5000000000000000  0.5060688224950635
  0.0000000000000000  0.0000000000000000  0.5064942061566153
  0.5000000000000000  0.5000000000000000  0.9933813074408676
  0.5000000000000000  0.0000000000000000  0.2645558712673861
  0.0000000000000000  0.5000000000000000  0.2645558712673861
  0.0000000000000000  0.5000000000000000  0.7847439556193099
  0.5000000000000000  0.0000000000000000  0.7847439556193099
  0.5000000000000000  0.0000000000000000  0.0391914735876242
  0.0000000000000000  0.5000000000000000  0.0391914735876242
  0.2487570353628551  0.2487570353628551  0.3251717920419744
  0.7512429646371448  0.2487570353628551  0.3251717920419744
  0.2487570353628551  0.7512429646371448  0.3251717920419744
  0.7512429646371448  0.7512429646371448  0.3251717920419744
  0.5000000000000000  0.0000000000000000  0.5655940925588380
  0.0000000000000000  0.5000000000000000  0.5655940925588380
  0.2531973310947161  0.2531973310947161  0.8175896082500801
  0.7468026689052840  0.2531973310947161  0.8175896082500801
  0.2531973310947161  0.7468026689052840  0.8175896082500801
  0.7468026689052840  0.7468026689052840  0.8175896082500801
 
  0.00000000E+00  0.00000000E+00  0.00000000E+00
  0.00000000E+00  0.00000000E+00  0.00000000E+00
  0.00000000E+00  0.00000000E+00  0.00000000E+00
  0.00000000E+00  0.00000000E+00  0.00000000E+00
  0.00000000E+00  0.00000000E+00  0.00000000E+00
  0.00000000E+00  0.00000000E+00  0.00000000E+00
  0.00000000E+00  0.00000000E+00  0.00000000E+00
  0.00000000E+00  0.00000000E+00  0.00000000E+00
  0.00000000E+00  0.00000000E+00  0.00000000E+00
  0.00000000E+00  0.00000000E+00  0.00000000E+00
  0.00000000E+00  0.00000000E+00  0.00000000E+00
  0.00000000E+00  0.00000000E+00  0.00000000E+00
  0.00000000E+00  0.00000000E+00  0.00000000E+00
  0.00000000E+00  0.00000000E+00  0.00000000E+00
  0.00000000E+00  0.00000000E+00  0.00000000E+00
  0.00000000E+00  0.00000000E+00  0.00000000E+00
  0.00000000E+00  0.00000000E+00  0.00000000E+00
  0.00000000E+00  0.00000000E+00  0.00000000E+00
  0.00000000E+00  0.00000000E+00  0.00000000E+00
  0.00000000E+00  0.00000000E+00  0.00000000E+00
