global                                  
   1.00000000000000     
     5.1369535207245285    0.0000000000000000    0.0000000000000000
     0.0000000000000000    5.1369535207245285    0.0000000000000000
     0.0000000000000000    0.0000000000000000    8.0395505756627657
   Ca   Bi   Fe   O 
     1     3     4    12
Direct
  0.0000000000000000  0.0000000000000000  0.0025676309488480
  0.5000000000000000  0.5000000000000000  0.5105177947438458
  0.0000000000000000  0.0000000000000000  0.5105729092602583
  0.5000000000000000  0.5000000000000000  0.9970038829729585
  0.5000000000000000  0.0000000000000000  0.2663650547976960
  0.0000000000000000  0.5000000000000000  0.2663650547976960
  0.0000000000000000  0.5000000000000000  0.7861537737057231
  0.5000000000000000  0.0000000000000000  0.7861537737057231
  0.5000000000000000  0.0000000000000000  0.0369355338000424
  0.0000000000000000  0.5000000000000000  0.0369355338000425
  0.2485792505034847  0.2485792505034847  0.3236645168044930
  0.7514207494965154  0.2485792505034847  0.3236645168044930
  0.2485792505034847  0.7514207494965154  0.3236645168044930
  0.7514207494965154  0.7514207494965154  0.3236645168044930
  0.5000000000000000  0.0000000000000000  0.5631325805376469
  0.0000000000000000  0.5000000000000000  0.5631325805376469
  0.2534836735362030  0.2534836735362030  0.8157481967934835
  0.7465163264637971  0.2534836735362030  0.8157481967934835
  0.2534836735362030  0.7465163264637971  0.8157481967934835
  0.7465163264637971  0.7465163264637971  0.8157481967934835
 
  0.00000000E+00  0.00000000E+00  0.00000000E+00
  0.00000000E+00  0.00000000E+00  0.00000000E+00
  0.00000000E+00  0.00000000E+00  0.00000000E+00
  0.00000000E+00  0.00000000E+00  0.00000000E+00
  0.00000000E+00  0.00000000E+00  0.00000000E+00
  0.00000000E+00  0.00000000E+00  0.00000000E+00
  0.00000000E+00  0.00000000E+00  0.00000000E+00
  0.00000000E+00  0.00000000E+00  0.00000000E+00
  0.00000000E+00  0.00000000E+00  0.00000000E+00
  0.00000000E+00  0.00000000E+00  0.00000000E+00
  0.00000000E+00  0.00000000E+00  0.00000000E+00
  0.00000000E+00  0.00000000E+00  0.00000000E+00
  0.00000000E+00  0.00000000E+00  0.00000000E+00
  0.00000000E+00  0.00000000E+00  0.00000000E+00
  0.00000000E+00  0.00000000E+00  0.00000000E+00
  0.00000000E+00  0.00000000E+00  0.00000000E+00
  0.00000000E+00  0.00000000E+00  0.00000000E+00
  0.00000000E+00  0.00000000E+00  0.00000000E+00
  0.00000000E+00  0.00000000E+00  0.00000000E+00
  0.00000000E+00  0.00000000E+00  0.00000000E+00
