global                                  
   1.00000000000000     
     5.1585972540381233    0.0000000000000000    0.0000000000000000
     0.0000000000000000    5.1585972540381233    0.0000000000000000
     0.0000000000000000    0.0000000000000000    8.5320013364930265
   Ca   Bi   Fe   O 
     1     3     4    12
Direct
  0.0000000000000000  0.0000000000000000  0.9949587653826254
  0.5000000000000000  0.5000000000000000  0.4986846414043838
  0.0000000000000000  0.0000000000000000  0.4991584652464781
  0.5000000000000000  0.5000000000000000  0.9892376803851929
  0.5000000000000000  0.0000000000000000  0.2658757112032063
  0.0000000000000000  0.5000000000000000  0.2658757112032063
  0.0000000000000000  0.5000000000000000  0.7784571184587730
  0.5000000000000000  0.0000000000000000  0.7784571184587730
  0.5000000000000000  0.0000000000000000  0.0498024942207228
  0.0000000000000000  0.5000000000000000  0.0498024942207228
  0.2493118191347308  0.2493118191347308  0.3266131651232876
  0.7506881808652690  0.2493118191347308  0.3266131651232876
  0.2493118191347308  0.7506881808652690  0.3266131651232876
  0.7506881808652690  0.7506881808652690  0.3266131651232876
  0.5000000000000000  0.0000000000000000  0.5620942169238659
  0.0000000000000000  0.5000000000000000  0.5620942169238659
  0.2523349530180853  0.2523349530180853  0.8206339158687582
  0.7476650469819148  0.2523349530180853  0.8206339158687582
  0.2523349530180853  0.7476650469819148  0.8206339158687582
  0.7476650469819148  0.7476650469819148  0.8206339158687582
 
  0.00000000E+00  0.00000000E+00  0.00000000E+00
  0.00000000E+00  0.00000000E+00  0.00000000E+00
  0.00000000E+00  0.00000000E+00  0.00000000E+00
  0.00000000E+00  0.00000000E+00  0.00000000E+00
  0.00000000E+00  0.00000000E+00  0.00000000E+00
  0.00000000E+00  0.00000000E+00  0.00000000E+00
  0.00000000E+00  0.00000000E+00  0.00000000E+00
  0.00000000E+00  0.00000000E+00  0.00000000E+00
  0.00000000E+00  0.00000000E+00  0.00000000E+00
  0.00000000E+00  0.00000000E+00  0.00000000E+00
  0.00000000E+00  0.00000000E+00  0.00000000E+00
  0.00000000E+00  0.00000000E+00  0.00000000E+00
  0.00000000E+00  0.00000000E+00  0.00000000E+00
  0.00000000E+00  0.00000000E+00  0.00000000E+00
  0.00000000E+00  0.00000000E+00  0.00000000E+00
  0.00000000E+00  0.00000000E+00  0.00000000E+00
  0.00000000E+00  0.00000000E+00  0.00000000E+00
  0.00000000E+00  0.00000000E+00  0.00000000E+00
  0.00000000E+00  0.00000000E+00  0.00000000E+00
  0.00000000E+00  0.00000000E+00  0.00000000E+00
