global                                  
   1.00000000000000     
     5.1623680492192205    0.0000000000000000    0.0000000000000000
     0.0000000000000000    5.1623680492192205    0.0000000000000000
     0.0000000000000000    0.0000000000000000    8.5963326680801622
   Ca   Bi   Fe   O 
     1     3     4    12
Direct
  0.0000000000000000  0.0000000000000000  0.9940383205313852
  0.5000000000000000  0.5000000000000000  0.4975863683607065
  0.0000000000000000  0.0000000000000000  0.4979088249065098
  0.5000000000000000  0.5000000000000000  0.9878384397316718
  0.5000000000000000  0.0000000000000000  0.2658206870843974
  0.0000000000000000  0.5000000000000000  0.2658206870843974
  0.0000000000000000  0.5000000000000000  0.7776431927867407
  0.5000000000000000  0.0000000000000000  0.7776431927867407
  0.5000000000000000  0.0000000000000000  0.0514685951270845
  0.0000000000000000  0.5000000000000000  0.0514685951270845
  0.2493984721694781  0.2493984721694781  0.3270040480641871
  0.7506015278305218  0.2493984721694781  0.3270040480641871
  0.2493984721694781  0.7506015278305218  0.3270040480641871
  0.7506015278305218  0.7506015278305218  0.3270040480641871
  0.5000000000000000  0.0000000000000000  0.5623374983872850
  0.0000000000000000  0.5000000000000000  0.5623374983872850
  0.2522138687536576  0.2522138687536576  0.8208897163604904
  0.7477861312463422  0.2522138687536576  0.8208897163604904
  0.2522138687536576  0.7477861312463422  0.8208897163604904
  0.7477861312463422  0.7477861312463422  0.8208897163604904
 
  0.00000000E+00  0.00000000E+00  0.00000000E+00
  0.00000000E+00  0.00000000E+00  0.00000000E+00
  0.00000000E+00  0.00000000E+00  0.00000000E+00
  0.00000000E+00  0.00000000E+00  0.00000000E+00
  0.00000000E+00  0.00000000E+00  0.00000000E+00
  0.00000000E+00  0.00000000E+00  0.00000000E+00
  0.00000000E+00  0.00000000E+00  0.00000000E+00
  0.00000000E+00  0.00000000E+00  0.00000000E+00
  0.00000000E+00  0.00000000E+00  0.00000000E+00
  0.00000000E+00  0.00000000E+00  0.00000000E+00
  0.00000000E+00  0.00000000E+00  0.00000000E+00
  0.00000000E+00  0.00000000E+00  0.00000000E+00
  0.00000000E+00  0.00000000E+00  0.00000000E+00
  0.00000000E+00  0.00000000E+00  0.00000000E+00
  0.00000000E+00  0.00000000E+00  0.00000000E+00
  0.00000000E+00  0.00000000E+00  0.00000000E+00
  0.00000000E+00  0.00000000E+00  0.00000000E+00
  0.00000000E+00  0.00000000E+00  0.00000000E+00
  0.00000000E+00  0.00000000E+00  0.00000000E+00
  0.00000000E+00  0.00000000E+00  0.00000000E+00
